LAMMPS (7 Feb 2024)
OMP_NUM_THREADS environment is not set. Defaulting to 1 thread. (src/comm.cpp:98)
  using 1 OpenMP thread(s) per MPI task
Loaded 1 plugins from C:\Users\AnalyzeLab\AppData\Local\LAMMPS 64-bit 7Feb2024-MSMPI with Python\plugins
boundary p p p
units real
atom_style full
bond_style harmonic
angle_style harmonic
dihedral_style opls
improper_style harmonic
pair_style lj/cut/coul/long 11.0 11.0
pair_modify mix geometric
special_bonds lj/coul 0.0 0.0 0.5
kspace_style pppm 1e-3

read_data ../minimization/system.data extra/bond/per/atom 3 extra/angle/per/atom 13 extra/dihedral/per/atom 11
Reading data file ...
  orthogonal box = (-100 -100 -100) to (100 100 100)
  2 by 2 by 4 MPI processor grid
  reading atoms ...
  13309 atoms
  reading velocities ...
  13309 velocities
  scanning bonds ...
  7 = max bonds/atom
  scanning angles ...
  19 = max angles/atom
  scanning dihedrals ...
  26 = max dihedrals/atom
  scanning impropers ...
  2 = max impropers/atom
  reading bonds ...
  12605 bonds
  reading angles ...
  20688 angles
  reading dihedrals ...
  19062 dihedrals
  reading impropers ...
  2126 impropers
Finding 1-2 1-3 1-4 neighbors ...
  special bond factors lj:    0        0        0.5     
  special bond factors coul:  0        0        0.5     
     4 = max # of 1-2 neighbors
     7 = max # of 1-3 neighbors
    12 = max # of 1-4 neighbors
    13 = max # of special neighbors
  special bonds CPU = 0.003 seconds
  read_data CPU = 0.357 seconds


include ../../../PARM_AFTER.lammps
mass 1 18.998
mass 2 14.027
mass 3 12.011
mass 4 15.999
mass 5 15.999
mass 6 15.035
mass 7 1.008
mass 8 16.043
mass 9 15.035
mass 10 15.035
mass 11 15.035
mass 12 15.035
mass 13 14.027
mass 14 14.027
mass 15 13.019
mass 16 13.019
mass 17 13.019
mass 18 12.011
mass 19 12.011
mass 20 15.999
mass 21 1.008
mass 22 15.035
mass 23 14.027
mass 24 32.06
mass 25 32.06
mass 26 32.06
mass 27 32.06
mass 28 1.008
mass 29 1.008
mass 30 15.035
mass 31 14.027
mass 32 15.035
mass 33 14.027
mass 34 15.035
mass 35 14.027
mass 36 14.007
mass 37 12.011
mass 38 15.035
mass 39 13.019
mass 40 12.011
mass 41 15.999
mass 42 15.035
mass 43 14.027
mass 44 14.027
mass 45 35.453
mass 46 12.011
mass 47 35.453
mass 48 12.011
mass 49 35.453
mass 50 32.06
mass 51 15.999
mass 52 15.035
mass 53 15.999
mass 54 14.007
mass 55 12.011
mass 56 15.035
mass 57 1
mass 58 4.003
mass 59 20.179
mass 60 39.948
mass 61 83.8
mass 62 131.3
mass 63 15.999
mass 64 1.008
mass 65 15.999
mass 66 1.008
mass 67 1e-30
mass 68 15.999
mass 69 1.008
mass 70 15.999
mass 71 1.008
mass 72 1e-30
mass 73 15.999
mass 74 1.008
mass 75 1e-30
mass 76 15.999
mass 77 1.008
mass 78 14.007
mass 79 1.008
mass 80 12.011
mass 81 12.011
mass 82 12.011
mass 83 12.011
mass 84 12.011
mass 85 1.008
mass 86 12.011
mass 87 12.011
mass 88 12.011
mass 89 1.008
mass 90 12.011
mass 91 1.008
mass 92 12.011
mass 93 12.011
mass 94 12.011
mass 95 12.011
mass 96 15.999
mass 97 1.008
mass 98 1.008
mass 99 12.011
mass 100 12.011
mass 101 12.011
mass 102 12.011
mass 103 12.011
mass 104 15.999
mass 105 1.008
mass 106 18.998
mass 107 1.008
mass 108 12.011
mass 109 15.999
mass 110 1.008
mass 111 15.999
mass 112 1.008
mass 113 15.999
mass 114 1.008
mass 115 12.011
mass 116 12.011
mass 117 12.011
mass 118 1.008
mass 119 15.999
mass 120 12.011
mass 121 15.999
mass 122 15.999
mass 123 12.011
mass 124 12.011
mass 125 12.011
mass 126 12.011
mass 127 1.008
mass 128 15.999
mass 129 15.999
mass 130 1.008
mass 131 12.011
mass 132 1.008
mass 133 12.011
mass 134 1.008
mass 135 12.011
mass 136 1.008
mass 137 12.011
mass 138 1.008
mass 139 12.011
mass 140 12.011
mass 141 12.011
mass 142 32.06
mass 143 32.06
mass 144 32.06
mass 145 32.06
mass 146 1.008
mass 147 1.008
mass 148 12.011
mass 149 12.011
mass 150 12.011
mass 151 12.011
mass 152 12.011
mass 153 12.011
mass 154 12.011
mass 155 12.011
mass 156 12.011
mass 157 12.011
mass 158 12.011
mass 159 12.011
mass 160 12.011
mass 161 12.011
mass 162 12.011
mass 163 12.011
mass 164 32.06
mass 165 12.011
mass 166 12.011
mass 167 12.011
mass 168 35.453
mass 169 12.011
mass 170 12.011
mass 171 12.011
mass 172 12.011
mass 173 12.011
mass 174 12.011
mass 175 12.011
mass 176 12.011
mass 177 12.011
mass 178 15.999
mass 179 14.007
mass 180 14.007
mass 181 14.007
mass 182 1.008
mass 183 1.008
mass 184 12.011
mass 185 12.011
mass 186 12.011
mass 187 12.011
mass 188 12.011
mass 189 12.011
mass 190 15.999
mass 191 14.007
mass 192 1.008
mass 193 14.007
mass 194 12.011
mass 195 15.999
mass 196 1.008
mass 197 1.008
mass 198 12.011
mass 199 12.011
mass 200 12.011
mass 201 12.011
mass 202 12.011
mass 203 12.011
mass 204 14.007
mass 205 12.011
mass 206 35.453
mass 207 14.007
mass 208 12.011
mass 209 12.011
mass 210 15.999
mass 211 15.999
mass 212 1.008
mass 213 12.011
mass 214 15.999
mass 215 12.011
mass 216 12.011
mass 217 12.011
mass 218 12.011
mass 219 12.011
mass 220 15.999
mass 221 1.008
mass 222 12.011
mass 223 15.999
mass 224 1.008
mass 225 12.011
mass 226 12.011
mass 227 12.011
mass 228 12.011
mass 229 14.007
mass 230 14.007
mass 231 14.007
mass 232 1.008
mass 233 1.008
mass 234 12.011
mass 235 12.011
mass 236 12.011
mass 237 12.011
mass 238 12.011
mass 239 12.011
mass 240 12.011
mass 241 12.011
mass 242 12.011
mass 243 14.007
mass 244 1.008
mass 245 12.011
mass 246 14.007
mass 247 1.008
mass 248 12.011
mass 249 12.011
mass 250 12.011
mass 251 12.011
mass 252 14.007
mass 253 1.008
mass 254 14.007
mass 255 12.011
mass 256 14.007
mass 257 1.008
mass 258 12.011
mass 259 1.008
mass 260 12.011
mass 261 1.008
mass 262 14.007
mass 263 12.011
mass 264 14.007
mass 265 12.011
mass 266 12.011
mass 267 12.011
mass 268 1.008
mass 269 15.999
mass 270 1.008
mass 271 15.999
mass 272 1.008
mass 273 1.008
mass 274 12.011
mass 275 1.008
mass 276 14.007
mass 277 12.011
mass 278 14.007
mass 279 12.011
mass 280 12.011
mass 281 12.011
mass 282 1.008
mass 283 15.999
mass 284 14.007
mass 285 1.008
mass 286 1.008
mass 287 1.008
mass 288 1.008
mass 289 14.007
mass 290 12.011
mass 291 14.007
mass 292 12.011
mass 293 12.011
mass 294 12.011
mass 295 14.007
mass 296 12.011
mass 297 14.007
mass 298 1.008
mass 299 14.007
mass 300 1.008
mass 301 1.008
mass 302 1.008
mass 303 1.008
mass 304 14.007
mass 305 12.011
mass 306 14.007
mass 307 12.011
mass 308 12.011
mass 309 12.011
mass 310 1.008
mass 311 14.007
mass 312 1.008
mass 313 15.999
mass 314 12.011
mass 315 1.008
mass 316 12.011
mass 317 1.008
mass 318 12.011
mass 319 1.008
mass 320 14.007
mass 321 12.011
mass 322 14.007
mass 323 12.011
mass 324 12.011
mass 325 12.011
mass 326 1.008
mass 327 15.999
mass 328 1.008
mass 329 14.007
mass 330 1.008
mass 331 1.008
mass 332 1.008
mass 333 1.008
mass 334 12.011
mass 335 1.008
mass 336 30.974
mass 337 15.999
mass 338 15.999
mass 339 15.035
mass 340 12.011
mass 341 35.453
mass 342 12.011
mass 343 18.998
mass 344 35.453
mass 345 79.904
mass 346 126.905
mass 347 18.039
mass 348 6.941
mass 349 22.99
mass 350 39.098
mass 351 85.468
mass 352 132.905
mass 353 24.305
mass 354 40.08
mass 355 87.62
mass 356 137.33
mass 357 12.011
mass 358 1.008
mass 359 32.06
mass 360 12.011
mass 361 1.008
mass 362 15.999
mass 363 12.011
mass 364 1.008
mass 365 12.011
mass 366 14.007
mass 367 12.011
mass 368 1.008
mass 369 14.007
mass 370 1.008
mass 371 12.011
mass 372 1.008
mass 373 12.011
mass 374 1.008
mass 375 1e-30
mass 376 15.999
mass 377 1.008
mass 378 238.029
mass 379 15.999
mass 380 15.999
mass 381 30.974
mass 382 15.999
mass 383 15.999
mass 384 12.011
mass 385 1.008
mass 386 30.974
mass 387 15.999
mass 388 15.999
mass 389 12.011
mass 390 1.008
mass 391 30.974
mass 392 15.999
mass 393 15.999
mass 394 12.011
mass 395 1.008
mass 396 12.011
mass 397 1.008
mass 398 12.011
mass 399 12.011
mass 400 1.008
mass 401 12.011
mass 402 12.011
mass 403 1.008
mass 404 12.011
mass 405 12.011
mass 406 12.011
mass 407 15.999
mass 408 15.999
mass 409 12.011
mass 410 1.008
mass 411 12.011
mass 412 12.011
mass 413 12.011
mass 414 15.999
mass 415 32.06
mass 416 15.999
mass 417 12.011
mass 418 1.008
mass 419 14.007
mass 420 1.008
mass 421 14.007
mass 422 1.008
mass 423 12.011
mass 424 1.008
mass 425 12.011
mass 426 1.008
mass 427 12.011
mass 428 1.008
mass 429 12.011
mass 430 12.011
mass 431 12.011
mass 432 12.011
mass 433 12.011
mass 434 32.06
mass 435 15.999
mass 436 32.06
mass 437 32.06
mass 438 15.999
mass 439 12.011
mass 440 12.011
mass 441 12.011
mass 442 12.011
mass 443 12.011
mass 444 14.007
mass 445 1.008
mass 446 12.011
mass 447 12.011
mass 448 12.011
mass 449 12.011
mass 450 12.011
mass 451 12.011
mass 452 14.007
mass 453 14.007
mass 454 1.008
mass 455 12.011
mass 456 12.011
mass 457 12.011
mass 458 12.011
mass 459 12.011
mass 460 12.011
mass 461 14.007
mass 462 12.011
mass 463 12.011
mass 464 12.011
mass 465 1.008
mass 466 1.008
mass 467 1.008
mass 468 14.007
mass 469 12.011
mass 470 1.008
mass 471 14.007
mass 472 12.011
mass 473 12.011
mass 474 12.011
mass 475 1.008
mass 476 1.008
mass 477 1.008
mass 478 14.007
mass 479 12.011
mass 480 12.011
mass 481 1.008
mass 482 1.008
mass 483 14.007
mass 484 12.011
mass 485 12.011
mass 486 1.008
mass 487 1.008
mass 488 1.008
mass 489 14.007
mass 490 14.007
mass 491 12.011
mass 492 12.011
mass 493 12.011
mass 494 1.008
mass 495 1.008
mass 496 1.008
mass 497 1.008
mass 498 14.007
mass 499 12.011
mass 500 14.007
mass 501 12.011
mass 502 12.011
mass 503 1.008
mass 504 1.008
mass 505 1.008
mass 506 1.008
mass 507 15.999
mass 508 12.011
mass 509 12.011
mass 510 1.008
mass 511 1.008
mass 512 15.999
mass 513 12.011
mass 514 14.007
mass 515 12.011
mass 516 12.011
mass 517 1.008
mass 518 1.008
mass 519 1.008
mass 520 15.999
mass 521 14.007
mass 522 12.011
mass 523 12.011
mass 524 12.011
mass 525 1.008
mass 526 1.008
mass 527 1.008
mass 528 14.007
mass 529 12.011
mass 530 12.011
mass 531 12.011
mass 532 12.011
mass 533 12.011
mass 534 12.011
mass 535 12.011
mass 536 12.011
mass 537 1.008
mass 538 1.008
mass 539 1.008
mass 540 1.008
mass 541 1.008
mass 542 1.008
mass 543 1.008
mass 544 14.007
mass 545 12.011
mass 546 12.011
mass 547 12.011
mass 548 12.011
mass 549 12.011
mass 550 12.011
mass 551 12.011
mass 552 12.011
mass 553 12.011
mass 554 1.008
mass 555 1.008
mass 556 1.008
mass 557 1.008
mass 558 1.008
mass 559 1.008
mass 560 1.008
mass 561 14.007
mass 562 12.011
mass 563 14.007
mass 564 12.011
mass 565 12.011
mass 566 12.011
mass 567 14.007
mass 568 12.011
mass 569 14.007
mass 570 1.008
mass 571 1.008
mass 572 1.008
mass 573 1.008
mass 574 32.06
mass 575 12.011
mass 576 14.007
mass 577 12.011
mass 578 12.011
mass 579 1.008
mass 580 1.008
mass 581 1.008
mass 582 14.007
mass 583 12.011
mass 584 1.008
mass 585 12.011
mass 586 12.011
mass 587 14.007
mass 588 12.011
mass 589 12.011
mass 590 12.011
mass 591 12.011
mass 592 12.011
mass 593 12.011
mass 594 1.008
mass 595 1.008
mass 596 1.008
mass 597 1.008
mass 598 14.007
mass 599 12.011
mass 600 14.007
mass 601 12.011
mass 602 12.011
mass 603 12.011
mass 604 1.008
mass 605 1.008
mass 606 1.008
mass 607 1.008
mass 608 12.011
mass 609 12.011
mass 610 12.011
mass 611 12.011
mass 612 12.011
mass 613 12.011
mass 614 12.011
mass 615 12.011
mass 616 12.011
mass 617 12.011
mass 618 12.011
mass 619 12.011
mass 620 12.011
mass 621 12.011
mass 622 12.011
mass 623 32.06
mass 624 1.008
mass 625 12.011
mass 626 12.011
mass 627 14.007
mass 628 12.011
mass 629 12.011
mass 630 12.011
mass 631 12.011
mass 632 12.011
mass 633 12.011
mass 634 12.011
mass 635 12.011
mass 636 12.011
mass 637 32.06
mass 638 227
mass 639 232.038
mass 640 243
mass 641 12.011
mass 642 12.011
mass 643 1.008
mass 644 138.906
mass 645 144.24
mass 646 151.96
mass 647 157.25
mass 648 173.04
mass 649 12.011
mass 650 35.453
mass 651 1.008
mass 652 12.011
mass 653 12.011
mass 654 12.011
mass 655 12.011
mass 656 1.008
mass 657 12.011
mass 658 1.008
mass 659 12.011
mass 660 18.998
mass 661 12.011
mass 662 18.998
mass 663 79.904
mass 664 14.027
mass 665 12.011
mass 666 12.011
mass 667 18.998
mass 668 12.011
mass 669 18.998
mass 670 12.011
mass 671 79.904
mass 672 12.011
mass 673 126.905
mass 674 12.011
mass 675 32.06
mass 676 12.011
mass 677 12.011
mass 678 12.011
mass 679 12.011
mass 680 12.011
mass 681 1.008
mass 682 1.008
mass 683 12.011
mass 684 14.007
mass 685 1.008
mass 686 1.008
mass 687 1.008
mass 688 12.011
mass 689 12.011
mass 690 14.007
mass 691 14.007
mass 692 14.007
mass 693 12.011
mass 694 14.007
mass 695 12.011
mass 696 12.011
mass 697 12.011
mass 698 12.011
mass 699 12.011
mass 700 1.008
mass 701 14.007
mass 702 15.999
mass 703 12.011
mass 704 1.008
mass 705 12.011
mass 706 12.011
mass 707 12.011
mass 708 14.007
mass 709 12.011
mass 710 12.011
mass 711 14.007
mass 712 15.999
mass 713 12.011
mass 714 15.999
mass 715 12.011
mass 716 12.011
mass 717 12.011
mass 718 1.008
mass 719 1.008
mass 720 1.008
mass 721 15.999
mass 722 30.974
mass 723 12.011
mass 724 12.011
mass 725 1.008
mass 726 30.974
mass 727 18.998
mass 728 14.007
mass 729 15.999
mass 730 14.007
mass 731 14.007
mass 732 14.007
mass 733 12.011
mass 734 12.011
mass 735 12.011
mass 736 12.011
mass 737 12.011
mass 738 12.011
mass 739 1.008
mass 740 1.008
mass 741 1.008
mass 742 12.011
mass 743 12.011
mass 744 12.011
mass 745 12.011
mass 746 12.011
mass 747 12.011
mass 748 12.011
mass 749 12.011
mass 750 12.011
mass 751 12.011
mass 752 12.011
mass 753 12.011
mass 754 12.011
mass 755 12.011
mass 756 1.008
mass 757 12.011
mass 758 12.011
mass 759 12.011
mass 760 1.008
mass 761 12.011
mass 762 12.011
mass 763 12.011
mass 764 15.999
mass 765 1.008
mass 766 14.007
mass 767 14.007
mass 768 14.007
mass 769 12.011
mass 770 14.007
mass 771 1.008
mass 772 12.011
mass 773 12.011
mass 774 12.011
mass 775 12.011
mass 776 12.011
mass 777 12.011
mass 778 12.011
mass 779 12.011
mass 780 1.008
mass 781 12.011
mass 782 12.011
mass 783 14.007
mass 784 15.999
mass 785 1.008
mass 786 18.998
mass 787 12.011
mass 788 1.008
mass 789 12.011
mass 790 12.011
mass 791 12.011
mass 792 12.011
mass 793 12.011
mass 794 12.011
mass 795 18.998
mass 796 12.011
mass 797 1.008
mass 798 12.011
mass 799 12.011
mass 800 35.453
mass 801 12.011
mass 802 1.008
mass 803 12.011
mass 804 12.011
mass 805 79.904
mass 806 12.011
mass 807 1.008
mass 808 12.011
mass 809 12.011
mass 810 18.998
mass 811 35.453
mass 812 79.904
mass 813 12.011
mass 814 15.999
mass 815 12.011
mass 816 18.998
mass 817 14.007
mass 818 12.011
mass 819 12.011
mass 820 12.011
mass 821 12.011
mass 822 15.999
mass 823 14.007
mass 824 1.008
mass 825 15.999
mass 826 1.008
mass 827 12.011
mass 828 12.011
mass 829 12.011
mass 830 12.011
mass 831 12.011
mass 832 12.011
mass 833 12.011
mass 834 1e-30
mass 835 12.011
mass 836 12.011
mass 837 12.011
mass 838 126.905
mass 839 1.008
mass 840 14.007
mass 841 12.011
mass 842 12.011
mass 843 14.007
mass 844 12.011
mass 845 12.011
mass 846 15.999
mass 847 14.007
mass 848 12.011
mass 849 12.011
mass 850 12.011
mass 851 12.011
mass 852 1.008
mass 853 12.011
mass 854 15.999
mass 855 1.008
mass 856 12.011
mass 857 12.011
mass 858 12.011
mass 859 12.011
mass 860 12.011
mass 861 12.011
mass 862 12.011
mass 863 12.011
mass 864 12.011
mass 865 12.011
mass 866 28.086
mass 867 28.086
mass 868 28.086
mass 869 28.086
mass 870 1.008
mass 871 12.011
mass 872 12.011
mass 873 12.011
mass 874 12.011
mass 875 18.998
mass 876 35.453
mass 877 79.904
mass 878 126.905
mass 879 6.941
mass 880 22.99
mass 881 39.098
mass 882 85.468
mass 883 132.905
mass 884 24.305
mass 885 40.08
mass 886 87.62
mass 887 137.33
mass 888 12.011
mass 889 12.011
mass 890 12.011
mass 891 12.011
mass 892 1.008
mass 893 14.007
mass 894 12.011
mass 895 14.007
mass 896 12.011
mass 897 12.011
mass 898 12.011
mass 899 1.008
mass 900 12.011
mass 901 12.011
mass 902 12.011
mass 903 12.011
mass 904 12.011
mass 905 15.999
mass 906 12.011
# mass 907 30.970 # LiPF6 P
# mass 908 19.000 # LiPF6 F
# mass 909 6.940 # LiPF6 Li
mass 907 18.9984 # LiFSI F
# mass 911 6.941 # LiFSI Li
# mass 912 14.0067 # LiFSI N
# mass 913 15.9994 # LiFSI O
# mass 914 32.065 # LiFSI S
mass 908 10.811 # LiDFOB B
mass 909 18.9984 # LiDFOB F

pair_coeff 1 1  0.061 2.94
pair_coeff 2 2  0.118 3.905
pair_coeff 3 3  0.105 3.75
pair_coeff 4 4  0.21 2.96
pair_coeff 5 5  0.17 3.0
pair_coeff 6 6  0.16 3.91
pair_coeff 7 7  0.0 0.0
pair_coeff 8 8  0.294 3.73
pair_coeff 9 9  0.207 3.775
pair_coeff 10 10  0.175 3.905
pair_coeff 11 11  0.16 3.91
pair_coeff 12 12  0.145 3.96
pair_coeff 13 13  0.118 3.905
pair_coeff 14 14  0.14 3.85
pair_coeff 15 15  0.08 3.85
pair_coeff 16 16  0.115 3.8
pair_coeff 17 17  0.11 3.75
pair_coeff 18 18  0.05 3.8
pair_coeff 19 19  0.105 3.75
pair_coeff 20 20  0.17 3.07
pair_coeff 21 21  0.0 0.0
pair_coeff 22 22  0.207 3.775
pair_coeff 23 23  0.118 3.905
pair_coeff 24 24  0.25 3.7
pair_coeff 25 25  0.25 3.55
pair_coeff 26 26  0.25 3.55
pair_coeff 27 27  0.25 3.55
pair_coeff 28 28  0.0 0.0
pair_coeff 29 29  0.0 0.0
pair_coeff 30 30  0.207 3.775
pair_coeff 31 31  0.118 3.905
pair_coeff 32 32  0.17 3.8
pair_coeff 33 33  0.118 3.8
pair_coeff 34 34  0.17 3.8
pair_coeff 35 35  0.118 3.8
pair_coeff 36 36  0.17 3.2
pair_coeff 37 37  0.15 3.65
pair_coeff 38 38  0.207 3.775
pair_coeff 39 39  0.08 3.85
pair_coeff 40 40  0.05 3.8
pair_coeff 41 41  0.17 3.0
pair_coeff 42 42  0.17 3.8
pair_coeff 43 43  0.118 3.8
pair_coeff 44 44  0.118 3.8
pair_coeff 45 45  0.3 3.4
pair_coeff 46 46  0.08 3.8
pair_coeff 47 47  0.3 3.47
pair_coeff 48 48  0.05 3.8
pair_coeff 49 49  0.266 3.47
pair_coeff 50 50  0.395 3.56
pair_coeff 51 51  0.28 2.93
pair_coeff 52 52  0.16 3.81
pair_coeff 53 53  0.21 2.96
pair_coeff 54 54  0.17 3.25
pair_coeff 55 55  0.115 3.8
pair_coeff 56 56  0.17 3.8
pair_coeff 57 57  0.0 0.0
pair_coeff 58 58  0.02 2.556
pair_coeff 59 59  0.069 2.78
pair_coeff 60 60  0.2339 3.401
pair_coeff 61 61  0.317 3.624
pair_coeff 62 62  0.433 3.935
pair_coeff 63 63  0.1521 3.15061
pair_coeff 64 64  0.0 0.0
pair_coeff 65 65  0.155 3.15365
pair_coeff 66 66  0.0 0.0
pair_coeff 67 67  0.0 0.0
pair_coeff 68 68  0.15 3.176
pair_coeff 69 69  0.0 0.0
pair_coeff 70 70  0.1 3.27
pair_coeff 71 71  0.0 0.0
pair_coeff 72 72  0.0 0.0
pair_coeff 73 73  0.16 3.12
pair_coeff 74 74  0.0 0.0
pair_coeff 75 75  0.0 0.0
pair_coeff 76 76  0.1554 3.16557
pair_coeff 77 77  0.0 0.0
pair_coeff 78 78  0.17 3.42
pair_coeff 79 79  0.0 0.0
pair_coeff 80 80  0.066 3.5
pair_coeff 81 81  0.066 3.5
pair_coeff 82 82  0.066 3.5
pair_coeff 83 83  0.066 3.5
pair_coeff 84 84  0.066 3.5
pair_coeff 85 85  0.03 2.5
pair_coeff 86 86  0.076 3.55
pair_coeff 87 87  0.076 3.55
pair_coeff 88 88  0.076 3.55
pair_coeff 89 89  0.03 2.42
pair_coeff 90 90  0.07 3.55
pair_coeff 91 91  0.03 2.42
pair_coeff 92 92  0.07 3.55
pair_coeff 93 93  0.066 3.5
pair_coeff 94 94  0.066 3.5
pair_coeff 95 95  0.076 3.55
pair_coeff 96 96  0.17 3.12
pair_coeff 97 97  0.0 0.0
pair_coeff 98 98  0.03 2.5
pair_coeff 99 99  0.066 3.5
pair_coeff 100 100  0.066 3.5
pair_coeff 101 101  0.066 3.5
pair_coeff 102 102  0.066 3.5
pair_coeff 103 103  0.062 3.25
pair_coeff 104 104  0.17 3.07
pair_coeff 105 105  0.0 0.0
pair_coeff 106 106  0.061 2.94
pair_coeff 107 107  0.03 2.5
pair_coeff 108 108  0.07 3.55
pair_coeff 109 109  0.17 3.07
pair_coeff 110 110  0.0 0.0
pair_coeff 111 111  0.17 3.07
pair_coeff 112 112  0.0 0.0
pair_coeff 113 113  0.17 3.07
pair_coeff 114 114  0.0 0.0
pair_coeff 115 115  0.066 3.5
pair_coeff 116 116  0.066 3.5
pair_coeff 117 117  0.066 3.5
pair_coeff 118 118  0.03 2.5
pair_coeff 119 119  0.14 2.9
pair_coeff 120 120  0.076 3.55
pair_coeff 121 121  0.14 2.9
pair_coeff 122 122  0.14 2.9
pair_coeff 123 123  0.066 3.5
pair_coeff 124 124  0.066 3.5
pair_coeff 125 125  0.066 3.5
pair_coeff 126 126  0.066 3.5
pair_coeff 127 127  0.03 2.5
pair_coeff 128 128  0.14 2.9
pair_coeff 129 129  0.17 3.07
pair_coeff 130 130  0.0 0.0
pair_coeff 131 131  0.066 3.5
pair_coeff 132 132  0.03 2.5
pair_coeff 133 133  0.066 3.5
pair_coeff 134 134  0.03 2.5
pair_coeff 135 135  0.066 3.5
pair_coeff 136 136  0.03 2.5
pair_coeff 137 137  0.066 3.5
pair_coeff 138 138  0.03 2.5
pair_coeff 139 139  0.066 3.5
pair_coeff 140 140  0.066 3.5
pair_coeff 141 141  0.07 3.55
pair_coeff 142 142  0.25 3.55
pair_coeff 143 143  0.25 3.7
pair_coeff 144 144  0.25 3.55
pair_coeff 145 145  0.25 3.55
pair_coeff 146 146  0.0 0.0
pair_coeff 147 147  0.0 0.0
pair_coeff 148 148  0.066 3.5
pair_coeff 149 149  0.066 3.5
pair_coeff 150 150  0.066 3.5
pair_coeff 151 151  0.066 3.5
pair_coeff 152 152  0.066 3.5
pair_coeff 153 153  0.066 3.5
pair_coeff 154 154  0.066 3.5
pair_coeff 155 155  0.066 3.5
pair_coeff 156 156  0.066 3.5
pair_coeff 157 157  0.066 3.5
pair_coeff 158 158  0.066 3.5
pair_coeff 159 159  0.066 3.5
pair_coeff 160 160  0.066 3.5
pair_coeff 161 161  0.066 3.5
pair_coeff 162 162  0.066 3.5
pair_coeff 163 163  0.07 3.55
pair_coeff 164 164  0.25 3.55
pair_coeff 165 165  0.066 3.5
pair_coeff 166 166  0.066 3.5
pair_coeff 167 167  0.066 3.5
pair_coeff 168 168  0.3 3.4
pair_coeff 169 169  0.076 3.55
pair_coeff 170 170  0.07 3.55
pair_coeff 171 171  0.066 3.5
pair_coeff 172 172  0.066 3.5
pair_coeff 173 173  0.105 3.75
pair_coeff 174 174  0.105 3.75
pair_coeff 175 175  0.105 3.75
pair_coeff 176 176  0.105 3.75
pair_coeff 177 177  0.105 3.75
pair_coeff 178 178  0.21 2.96
pair_coeff 179 179  0.17 3.25
pair_coeff 180 180  0.17 3.25
pair_coeff 181 181  0.17 3.25
pair_coeff 182 182  0.0 0.0
pair_coeff 183 183  0.0 0.0
pair_coeff 184 184  0.066 3.5
pair_coeff 185 185  0.066 3.5
pair_coeff 186 186  0.066 3.5
pair_coeff 187 187  0.066 3.5
pair_coeff 188 188  0.066 3.5
pair_coeff 189 189  0.105 3.75
pair_coeff 190 190  0.21 2.96
pair_coeff 191 191  0.17 3.25
pair_coeff 192 192  0.0 0.0
pair_coeff 193 193  0.17 3.25
pair_coeff 194 194  0.105 3.75
pair_coeff 195 195  0.21 2.96
pair_coeff 196 196  0.0 0.0
pair_coeff 197 197  0.02 2.5
pair_coeff 198 198  0.066 3.5
pair_coeff 199 199  0.066 3.5
pair_coeff 200 200  0.066 3.5
pair_coeff 201 201  0.066 3.5
pair_coeff 202 202  0.07 3.55
pair_coeff 203 203  0.15 3.65
pair_coeff 204 204  0.17 3.2
pair_coeff 205 205  0.07 3.55
pair_coeff 206 206  0.3 3.4
pair_coeff 207 207  0.17 3.25
pair_coeff 208 208  0.07 3.55
pair_coeff 209 209  0.105 3.75
pair_coeff 210 210  0.21 2.96
pair_coeff 211 211  0.17 3.0
pair_coeff 212 212  0.0 0.0
pair_coeff 213 213  0.105 3.75
pair_coeff 214 214  0.21 2.96
pair_coeff 215 215  0.066 3.5
pair_coeff 216 216  0.066 3.5
pair_coeff 217 217  0.066 3.5
pair_coeff 218 218  0.066 3.5
pair_coeff 219 219  0.105 3.75
pair_coeff 220 220  0.21 2.96
pair_coeff 221 221  0.015 2.42
pair_coeff 222 222  0.105 3.75
pair_coeff 223 223  0.21 2.96
pair_coeff 224 224  0.015 2.42
pair_coeff 225 225  0.066 3.5
pair_coeff 226 226  0.066 3.5
pair_coeff 227 227  0.066 3.5
pair_coeff 228 228  0.066 3.5
pair_coeff 229 229  0.17 3.25
pair_coeff 230 230  0.17 3.25
pair_coeff 231 231  0.17 3.25
pair_coeff 232 232  0.0 0.0
pair_coeff 233 233  0.0 0.0
pair_coeff 234 234  0.066 3.5
pair_coeff 235 235  0.066 3.5
pair_coeff 236 236  0.066 3.5
pair_coeff 237 237  0.066 3.5
pair_coeff 238 238  0.066 3.5
pair_coeff 239 239  0.066 3.5
pair_coeff 240 240  0.066 3.5
pair_coeff 241 241  0.066 3.5
pair_coeff 242 242  0.066 3.5
pair_coeff 243 243  0.17 3.25
pair_coeff 244 244  0.0 0.0
pair_coeff 245 245  0.05 3.55
pair_coeff 246 246  0.17 3.25
pair_coeff 247 247  0.0 0.0
pair_coeff 248 248  0.066 3.5
pair_coeff 249 249  0.066 3.5
pair_coeff 250 250  0.066 3.5
pair_coeff 251 251  0.066 3.5
pair_coeff 252 252  0.17 3.25
pair_coeff 253 253  0.0 0.0
pair_coeff 254 254  0.17 3.25
pair_coeff 255 255  0.08 3.5
pair_coeff 256 256  0.17 3.25
pair_coeff 257 257  0.0 0.0
pair_coeff 258 258  0.08 3.5
pair_coeff 259 259  0.05 2.5
pair_coeff 260 260  0.08 3.5
pair_coeff 261 261  0.05 2.5
pair_coeff 262 262  0.17 3.25
pair_coeff 263 263  0.105 3.75
pair_coeff 264 264  0.17 3.25
pair_coeff 265 265  0.105 3.75
pair_coeff 266 266  0.08 3.5
pair_coeff 267 267  0.08 3.5
pair_coeff 268 268  0.0 0.0
pair_coeff 269 269  0.21 2.96
pair_coeff 270 270  0.0 0.0
pair_coeff 271 271  0.21 2.96
pair_coeff 272 272  0.05 2.5
pair_coeff 273 273  0.05 2.5
pair_coeff 274 274  0.08 3.5
pair_coeff 275 275  0.05 2.5
pair_coeff 276 276  0.17 3.25
pair_coeff 277 277  0.105 3.75
pair_coeff 278 278  0.17 3.25
pair_coeff 279 279  0.08 3.5
pair_coeff 280 280  0.08 3.5
pair_coeff 281 281  0.08 3.5
pair_coeff 282 282  0.0 0.0
pair_coeff 283 283  0.21 2.96
pair_coeff 284 284  0.17 3.25
pair_coeff 285 285  0.0 0.0
pair_coeff 286 286  0.0 0.0
pair_coeff 287 287  0.05 2.5
pair_coeff 288 288  0.05 2.5
pair_coeff 289 289  0.17 3.25
pair_coeff 290 290  0.08 3.5
pair_coeff 291 291  0.17 3.25
pair_coeff 292 292  0.08 3.5
pair_coeff 293 293  0.08 3.5
pair_coeff 294 294  0.08 3.5
pair_coeff 295 295  0.17 3.25
pair_coeff 296 296  0.08 3.5
pair_coeff 297 297  0.17 3.25
pair_coeff 298 298  0.05 2.5
pair_coeff 299 299  0.17 3.25
pair_coeff 300 300  0.0 0.0
pair_coeff 301 301  0.0 0.0
pair_coeff 302 302  0.05 2.5
pair_coeff 303 303  0.0 0.0
pair_coeff 304 304  0.17 3.25
pair_coeff 305 305  0.08 3.5
pair_coeff 306 306  0.17 3.25
pair_coeff 307 307  0.08 3.5
pair_coeff 308 308  0.08 3.5
pair_coeff 309 309  0.105 3.75
pair_coeff 310 310  0.0 0.0
pair_coeff 311 311  0.17 3.25
pair_coeff 312 312  0.0 0.0
pair_coeff 313 313  0.21 2.96
pair_coeff 314 314  0.08 3.5
pair_coeff 315 315  0.05 2.5
pair_coeff 316 316  0.08 3.5
pair_coeff 317 317  0.05 2.5
pair_coeff 318 318  0.08 3.5
pair_coeff 319 319  0.05 2.5
pair_coeff 320 320  0.17 3.25
pair_coeff 321 321  0.105 3.75
pair_coeff 322 322  0.17 3.25
pair_coeff 323 323  0.08 3.5
pair_coeff 324 324  0.08 3.5
pair_coeff 325 325  0.08 3.5
pair_coeff 326 326  0.0 0.0
pair_coeff 327 327  0.21 2.96
pair_coeff 328 328  0.0 0.0
pair_coeff 329 329  0.17 3.25
pair_coeff 330 330  0.0 0.0
pair_coeff 331 331  0.0 0.0
pair_coeff 332 332  0.05 2.5
pair_coeff 333 333  0.05 2.5
pair_coeff 334 334  0.08 3.5
pair_coeff 335 335  0.05 2.5
pair_coeff 336 336  0.2 3.74
pair_coeff 337 337  0.21 2.96
pair_coeff 338 338  0.17 3.0
pair_coeff 339 339  0.066 3.55
pair_coeff 340 340  0.08 3.5
pair_coeff 341 341  0.3 3.4
pair_coeff 342 342  0.076 3.55
pair_coeff 343 343  0.71 3.05
pair_coeff 344 344  0.71 4.02
pair_coeff 345 345  0.71 4.28
pair_coeff 346 346  0.71 4.81
pair_coeff 347 347  0.0005 5.34
pair_coeff 348 348  0.0005 2.87
pair_coeff 349 349  0.0005 4.07
pair_coeff 350 350  0.0005 5.17
pair_coeff 351 351  0.0005 5.6
pair_coeff 352 352  0.0005 6.2
pair_coeff 353 353  0.875044 1.644471
pair_coeff 354 354  0.449657 2.412031
pair_coeff 355 355  0.118226 3.102688
pair_coeff 356 356  0.047096 3.81661
pair_coeff 357 357  0.3 4.2
pair_coeff 358 358  0.05 2.5
pair_coeff 359 359  0.5 4.25
pair_coeff 360 360  0.3 4.2
pair_coeff 361 361  0.05 2.5
pair_coeff 362 362  0.25 3.15
pair_coeff 363 363  0.3 4.2
pair_coeff 364 364  0.05 2.5
pair_coeff 365 365  0.15 3.65
pair_coeff 366 366  0.25 3.4
pair_coeff 367 367  0.3 4.2
pair_coeff 368 368  0.05 2.5
pair_coeff 369 369  0.25 3.4
pair_coeff 370 370  0.05 2.5
pair_coeff 371 371  0.3 4.2
pair_coeff 372 372  0.05 2.5
pair_coeff 373 373  0.3 4.2
pair_coeff 374 374  0.05 2.5
pair_coeff 375 375  0.0 0.0
pair_coeff 376 376  0.25 3.2
pair_coeff 377 377  0.0 0.0
pair_coeff 378 378  0.4 2.81524
pair_coeff 379 379  0.2 3.11815
pair_coeff 380 380  0.14 2.9
pair_coeff 381 381  0.2 3.74
pair_coeff 382 382  0.2 3.15
pair_coeff 383 383  0.14 2.9
pair_coeff 384 384  0.066 3.5
pair_coeff 385 385  0.03 2.5
pair_coeff 386 386  0.2 3.74
pair_coeff 387 387  0.2 3.15
pair_coeff 388 388  0.14 2.9
pair_coeff 389 389  0.066 3.5
pair_coeff 390 390  0.03 2.5
pair_coeff 391 391  0.2 3.74
pair_coeff 392 392  0.2 3.15
pair_coeff 393 393  0.14 2.9
pair_coeff 394 394  0.066 3.5
pair_coeff 395 395  0.03 2.5
pair_coeff 396 396  0.066 3.5
pair_coeff 397 397  0.03 2.5
pair_coeff 398 398  0.07 3.55
pair_coeff 399 399  0.066 3.5
pair_coeff 400 400  0.03 2.5
pair_coeff 401 401  0.07 3.55
pair_coeff 402 402  0.066 3.5
pair_coeff 403 403  0.03 2.5
pair_coeff 404 404  0.07 3.55
pair_coeff 405 405  0.066 3.5
pair_coeff 406 406  0.105 3.75
pair_coeff 407 407  0.21 2.96
pair_coeff 408 408  0.17 3.0
pair_coeff 409 409  0.066 3.5
pair_coeff 410 410  0.015 2.42
pair_coeff 411 411  0.105 3.75
pair_coeff 412 412  0.105 3.75
pair_coeff 413 413  0.07 3.55
pair_coeff 414 414  0.17 3.0
pair_coeff 415 415  0.25 3.55
pair_coeff 416 416  0.17 2.96
pair_coeff 417 417  0.066 3.5
pair_coeff 418 418  0.03 2.5
pair_coeff 419 419  0.17 3.25
pair_coeff 420 420  0.0 0.0
pair_coeff 421 421  0.17 3.25
pair_coeff 422 422  0.0 0.0
pair_coeff 423 423  0.066 3.5
pair_coeff 424 424  0.03 2.5
pair_coeff 425 425  0.066 3.5
pair_coeff 426 426  0.03 2.5
pair_coeff 427 427  0.066 3.5
pair_coeff 428 428  0.03 2.5
pair_coeff 429 429  0.07 3.55
pair_coeff 430 430  0.07 3.55
pair_coeff 431 431  0.066 3.5
pair_coeff 432 432  0.066 3.5
pair_coeff 433 433  0.066 3.5
pair_coeff 434 434  0.25 3.55
pair_coeff 435 435  0.17 2.96
pair_coeff 436 436  0.395 3.56
pair_coeff 437 437  0.395 3.56
pair_coeff 438 438  0.28 2.93
pair_coeff 439 439  0.066 3.5
pair_coeff 440 440  0.066 3.5
pair_coeff 441 441  0.07 3.55
pair_coeff 442 442  0.07 3.55
pair_coeff 443 443  0.07 3.55
pair_coeff 444 444  0.17 3.25
pair_coeff 445 445  0.0 0.0
pair_coeff 446 446  0.066 3.5
pair_coeff 447 447  0.07 3.55
pair_coeff 448 448  0.07 3.55
pair_coeff 449 449  0.07 3.55
pair_coeff 450 450  0.07 3.55
pair_coeff 451 451  0.07 3.55
pair_coeff 452 452  0.17 3.25
pair_coeff 453 453  0.17 3.25
pair_coeff 454 454  0.0 0.0
pair_coeff 455 455  0.07 3.55
pair_coeff 456 456  0.066 3.5
pair_coeff 457 457  0.066 3.5
pair_coeff 458 458  0.076 3.55
pair_coeff 459 459  0.076 3.55
pair_coeff 460 460  0.07 3.55
pair_coeff 461 461  0.17 3.25
pair_coeff 462 462  0.07 3.55
pair_coeff 463 463  0.07 3.55
pair_coeff 464 464  0.07 3.55
pair_coeff 465 465  0.03 2.42
pair_coeff 466 466  0.03 2.42
pair_coeff 467 467  0.03 2.42
pair_coeff 468 468  0.17 3.25
pair_coeff 469 469  0.07 3.55
pair_coeff 470 470  0.03 2.42
pair_coeff 471 471  0.17 3.25
pair_coeff 472 472  0.07 3.55
pair_coeff 473 473  0.07 3.55
pair_coeff 474 474  0.07 3.55
pair_coeff 475 475  0.03 2.42
pair_coeff 476 476  0.03 2.42
pair_coeff 477 477  0.03 2.42
pair_coeff 478 478  0.17 3.25
pair_coeff 479 479  0.07 3.55
pair_coeff 480 480  0.07 3.55
pair_coeff 481 481  0.03 2.42
pair_coeff 482 482  0.03 2.42
pair_coeff 483 483  0.17 3.25
pair_coeff 484 484  0.07 3.55
pair_coeff 485 485  0.07 3.55
pair_coeff 486 486  0.0 0.0
pair_coeff 487 487  0.03 2.42
pair_coeff 488 488  0.03 2.42
pair_coeff 489 489  0.17 3.25
pair_coeff 490 490  0.17 3.25
pair_coeff 491 491  0.07 3.55
pair_coeff 492 492  0.07 3.55
pair_coeff 493 493  0.07 3.55
pair_coeff 494 494  0.0 0.0
pair_coeff 495 495  0.03 2.42
pair_coeff 496 496  0.03 2.42
pair_coeff 497 497  0.03 2.42
pair_coeff 498 498  0.17 3.25
pair_coeff 499 499  0.07 3.55
pair_coeff 500 500  0.17 3.25
pair_coeff 501 501  0.07 3.55
pair_coeff 502 502  0.07 3.55
pair_coeff 503 503  0.0 0.0
pair_coeff 504 504  0.03 2.42
pair_coeff 505 505  0.03 2.42
pair_coeff 506 506  0.03 2.42
pair_coeff 507 507  0.14 2.9
pair_coeff 508 508  0.07 3.55
pair_coeff 509 509  0.076 3.55
pair_coeff 510 510  0.03 2.42
pair_coeff 511 511  0.03 2.42
pair_coeff 512 512  0.14 2.9
pair_coeff 513 513  0.07 3.55
pair_coeff 514 514  0.17 3.25
pair_coeff 515 515  0.07 3.55
pair_coeff 516 516  0.07 3.55
pair_coeff 517 517  0.03 2.42
pair_coeff 518 518  0.03 2.42
pair_coeff 519 519  0.03 2.42
pair_coeff 520 520  0.14 2.9
pair_coeff 521 521  0.17 3.25
pair_coeff 522 522  0.07 3.55
pair_coeff 523 523  0.07 3.55
pair_coeff 524 524  0.07 3.55
pair_coeff 525 525  0.03 2.42
pair_coeff 526 526  0.03 2.42
pair_coeff 527 527  0.03 2.42
pair_coeff 528 528  0.17 3.25
pair_coeff 529 529  0.07 3.55
pair_coeff 530 530  0.07 3.55
pair_coeff 531 531  0.07 3.55
pair_coeff 532 532  0.07 3.55
pair_coeff 533 533  0.07 3.55
pair_coeff 534 534  0.07 3.55
pair_coeff 535 535  0.07 3.55
pair_coeff 536 536  0.07 3.55
pair_coeff 537 537  0.0 0.0
pair_coeff 538 538  0.03 2.42
pair_coeff 539 539  0.03 2.42
pair_coeff 540 540  0.03 2.42
pair_coeff 541 541  0.03 2.42
pair_coeff 542 542  0.03 2.42
pair_coeff 543 543  0.03 2.42
pair_coeff 544 544  0.17 3.25
pair_coeff 545 545  0.07 3.55
pair_coeff 546 546  0.07 3.55
pair_coeff 547 547  0.07 3.55
pair_coeff 548 548  0.07 3.55
pair_coeff 549 549  0.07 3.55
pair_coeff 550 550  0.07 3.55
pair_coeff 551 551  0.07 3.55
pair_coeff 552 552  0.07 3.55
pair_coeff 553 553  0.07 3.55
pair_coeff 554 554  0.03 2.42
pair_coeff 555 555  0.03 2.42
pair_coeff 556 556  0.03 2.42
pair_coeff 557 557  0.03 2.42
pair_coeff 558 558  0.03 2.42
pair_coeff 559 559  0.03 2.42
pair_coeff 560 560  0.03 2.42
pair_coeff 561 561  0.17 3.25
pair_coeff 562 562  0.07 3.55
pair_coeff 563 563  0.17 3.25
pair_coeff 564 564  0.07 3.55
pair_coeff 565 565  0.07 3.55
pair_coeff 566 566  0.07 3.55
pair_coeff 567 567  0.17 3.25
pair_coeff 568 568  0.07 3.55
pair_coeff 569 569  0.17 3.25
pair_coeff 570 570  0.03 2.42
pair_coeff 571 571  0.03 2.42
pair_coeff 572 572  0.03 2.42
pair_coeff 573 573  0.0 0.0
pair_coeff 574 574  0.25 3.55
pair_coeff 575 575  0.07 3.55
pair_coeff 576 576  0.17 3.25
pair_coeff 577 577  0.07 3.55
pair_coeff 578 578  0.07 3.55
pair_coeff 579 579  0.03 2.42
pair_coeff 580 580  0.03 2.42
pair_coeff 581 581  0.03 2.42
pair_coeff 582 582  0.17 3.25
pair_coeff 583 583  0.07 3.55
pair_coeff 584 584  0.03 2.42
pair_coeff 585 585  0.07 3.55
pair_coeff 586 586  0.066 3.5
pair_coeff 587 587  0.17 3.25
pair_coeff 588 588  0.07 3.55
pair_coeff 589 589  0.07 3.55
pair_coeff 590 590  0.07 3.55
pair_coeff 591 591  0.07 3.55
pair_coeff 592 592  0.07 3.55
pair_coeff 593 593  0.07 3.55
pair_coeff 594 594  0.03 2.42
pair_coeff 595 595  0.03 2.42
pair_coeff 596 596  0.03 2.42
pair_coeff 597 597  0.03 2.42
pair_coeff 598 598  0.17 3.25
pair_coeff 599 599  0.07 3.55
pair_coeff 600 600  0.17 3.25
pair_coeff 601 601  0.07 3.55
pair_coeff 602 602  0.07 3.55
pair_coeff 603 603  0.066 3.5
pair_coeff 604 604  0.03 2.42
pair_coeff 605 605  0.03 2.42
pair_coeff 606 606  0.03 2.42
pair_coeff 607 607  0.03 2.5
pair_coeff 608 608  0.066 3.5
pair_coeff 609 609  0.066 3.5
pair_coeff 610 610  0.066 3.5
pair_coeff 611 611  0.066 3.5
pair_coeff 612 612  0.066 3.5
pair_coeff 613 613  0.066 3.5
pair_coeff 614 614  0.066 3.5
pair_coeff 615 615  0.066 3.5
pair_coeff 616 616  0.066 3.5
pair_coeff 617 617  0.066 3.5
pair_coeff 618 618  0.066 3.5
pair_coeff 619 619  0.066 3.5
pair_coeff 620 620  0.066 3.5
pair_coeff 621 621  0.066 3.5
pair_coeff 622 622  0.066 3.5
pair_coeff 623 623  0.25 3.55
pair_coeff 624 624  0.0 0.0
pair_coeff 625 625  0.07 3.55
pair_coeff 626 626  0.105 3.75
pair_coeff 627 627  0.17 3.25
pair_coeff 628 628  0.066 3.5
pair_coeff 629 629  0.066 3.5
pair_coeff 630 630  0.066 3.5
pair_coeff 631 631  0.07 3.55
pair_coeff 632 632  0.07 3.55
pair_coeff 633 633  0.07 3.55
pair_coeff 634 634  0.07 3.55
pair_coeff 635 635  0.07 3.55
pair_coeff 636 636  0.07 3.55
pair_coeff 637 637  0.25 3.55
pair_coeff 638 638  0.054 3.473
pair_coeff 639 639  0.05 3.3
pair_coeff 640 640  0.05 3.3
pair_coeff 641 641  0.076 3.55
pair_coeff 642 642  0.066 3.5
pair_coeff 643 643  0.03 2.5
pair_coeff 644 644  0.06 3.75
pair_coeff 645 645  0.054 3.473
pair_coeff 646 646  0.05 3.3
pair_coeff 647 647  0.05 3.3
pair_coeff 648 648  0.04 2.95
pair_coeff 649 649  0.076 3.55
pair_coeff 650 650  0.3 3.4
pair_coeff 651 651  0.03 2.42
pair_coeff 652 652  0.066 3.5
pair_coeff 653 653  0.066 3.5
pair_coeff 654 654  0.066 3.5
pair_coeff 655 655  0.07 3.55
pair_coeff 656 656  0.03 2.42
pair_coeff 657 657  0.07 3.55
pair_coeff 658 658  0.03 2.42
pair_coeff 659 659  0.07 3.55
pair_coeff 660 660  0.061 2.85
pair_coeff 661 661  0.07 3.55
pair_coeff 662 662  0.061 2.85
pair_coeff 663 663  0.47 3.47
pair_coeff 664 664  0.118 3.905
pair_coeff 665 665  0.07 3.55
pair_coeff 666 666  0.062 3.25
pair_coeff 667 667  0.061 2.94
pair_coeff 668 668  0.07 3.55
pair_coeff 669 669  0.061 2.85
pair_coeff 670 670  0.07 3.55
pair_coeff 671 671  0.47 3.47
pair_coeff 672 672  0.07 3.55
pair_coeff 673 673  0.6 3.75
pair_coeff 674 674  0.066 3.5
pair_coeff 675 675  0.25 3.55
pair_coeff 676 676  0.07 3.55
pair_coeff 677 677  0.07 3.55
pair_coeff 678 678  0.07 3.55
pair_coeff 679 679  0.07 3.55
pair_coeff 680 680  0.07 3.55
pair_coeff 681 681  0.03 2.42
pair_coeff 682 682  0.03 2.42
pair_coeff 683 683  0.05 3.55
pair_coeff 684 684  0.17 3.25
pair_coeff 685 685  0.0 0.0
pair_coeff 686 686  0.0 0.0
pair_coeff 687 687  0.03 2.42
pair_coeff 688 688  0.066 3.5
pair_coeff 689 689  0.066 3.5
pair_coeff 690 690  0.17 3.25
pair_coeff 691 691  0.17 3.25
pair_coeff 692 692  0.17 3.25
pair_coeff 693 693  0.05 3.55
pair_coeff 694 694  0.17 3.2
pair_coeff 695 695  0.066 3.3
pair_coeff 696 696  0.066 3.3
pair_coeff 697 697  0.066 3.3
pair_coeff 698 698  0.066 3.3
pair_coeff 699 699  0.066 3.3
pair_coeff 700 700  0.015 2.5
pair_coeff 701 701  0.12 3.25
pair_coeff 702 702  0.17 2.96
pair_coeff 703 703  0.066 3.5
pair_coeff 704 704  0.015 2.5
pair_coeff 705 705  0.066 3.5
pair_coeff 706 706  0.066 3.5
pair_coeff 707 707  0.066 3.5
pair_coeff 708 708  0.12 3.25
pair_coeff 709 709  0.07 3.55
pair_coeff 710 710  0.066 3.3
pair_coeff 711 711  0.17 3.25
pair_coeff 712 712  0.21 2.96
pair_coeff 713 713  0.105 3.75
pair_coeff 714 714  0.17 3.0
pair_coeff 715 715  0.066 3.5
pair_coeff 716 716  0.066 3.5
pair_coeff 717 717  0.066 3.5
pair_coeff 718 718  0.015 2.42
pair_coeff 719 719  0.015 2.42
pair_coeff 720 720  0.015 2.42
pair_coeff 721 721  0.14 2.9
pair_coeff 722 722  0.2 3.74
pair_coeff 723 723  0.066 3.5
pair_coeff 724 724  0.066 3.5
pair_coeff 725 725  0.03 2.5
pair_coeff 726 726  0.2 3.74
pair_coeff 727 727  0.061 3.1181
pair_coeff 728 728  0.17 3.15
pair_coeff 729 729  0.21 2.86
pair_coeff 730 730  0.17 3.3
pair_coeff 731 731  0.17 3.3
pair_coeff 732 732  0.17 3.3
pair_coeff 733 733  0.066 3.5
pair_coeff 734 734  0.066 3.5
pair_coeff 735 735  0.066 3.5
pair_coeff 736 736  0.066 3.5
pair_coeff 737 737  0.066 3.5
pair_coeff 738 738  0.066 3.5
pair_coeff 739 739  0.0 0.0
pair_coeff 740 740  0.0 0.0
pair_coeff 741 741  0.015 2.5
pair_coeff 742 742  0.066 3.5
pair_coeff 743 743  0.066 3.5
pair_coeff 744 744  0.066 3.5
pair_coeff 745 745  0.066 3.5
pair_coeff 746 746  0.07 3.55
pair_coeff 747 747  0.07 3.55
pair_coeff 748 748  0.07 3.55
pair_coeff 749 749  0.066 3.5
pair_coeff 750 750  0.066 3.5
pair_coeff 751 751  0.066 3.5
pair_coeff 752 752  0.066 3.5
pair_coeff 753 753  0.066 3.5
pair_coeff 754 754  0.066 3.5
pair_coeff 755 755  0.086 3.3
pair_coeff 756 756  0.015 2.42
pair_coeff 757 757  0.21 3.3
pair_coeff 758 758  0.135 3.3
pair_coeff 759 759  0.1 3.3
pair_coeff 760 760  0.015 2.5
pair_coeff 761 761  0.066 3.5
pair_coeff 762 762  0.066 3.5
pair_coeff 763 763  0.066 3.5
pair_coeff 764 764  0.17 3.12
pair_coeff 765 765  0.0 0.0
pair_coeff 766 766  0.17 3.25
pair_coeff 767 767  0.17 3.25
pair_coeff 768 768  0.17 3.25
pair_coeff 769 769  0.21 3.3
pair_coeff 770 770  0.17 3.25
pair_coeff 771 771  0.0 0.0
pair_coeff 772 772  0.066 3.5
pair_coeff 773 773  0.066 3.5
pair_coeff 774 774  0.066 3.5
pair_coeff 775 775  0.066 3.5
pair_coeff 776 776  0.07 3.55
pair_coeff 777 777  0.076 3.55
pair_coeff 778 778  0.07 3.55
pair_coeff 779 779  0.07 3.55
pair_coeff 780 780  0.03 2.5
pair_coeff 781 781  0.066 3.5
pair_coeff 782 782  0.105 3.75
pair_coeff 783 783  0.17 3.25
pair_coeff 784 784  0.21 2.96
pair_coeff 785 785  0.0 0.0
pair_coeff 786 786  0.061 2.94
pair_coeff 787 787  0.066 3.5
pair_coeff 788 788  0.03 2.5
pair_coeff 789 789  0.066 3.5
pair_coeff 790 790  0.066 3.5
pair_coeff 791 791  0.066 3.5
pair_coeff 792 792  0.066 3.5
pair_coeff 793 793  0.066 3.5
pair_coeff 794 794  0.097 3.5
pair_coeff 795 795  0.053 2.95
pair_coeff 796 796  0.062 3.25
pair_coeff 797 797  0.03 2.5
pair_coeff 798 798  0.066 3.5
pair_coeff 799 799  0.066 3.5
pair_coeff 800 800  0.3 3.4
pair_coeff 801 801  0.066 3.5
pair_coeff 802 802  0.03 2.5
pair_coeff 803 803  0.066 3.5
pair_coeff 804 804  0.066 3.5
pair_coeff 805 805  0.47 3.47
pair_coeff 806 806  0.066 3.5
pair_coeff 807 807  0.03 2.5
pair_coeff 808 808  0.066 3.5
pair_coeff 809 809  0.066 3.5
pair_coeff 810 810  0.061 2.94
pair_coeff 811 811  0.3 3.4
pair_coeff 812 812  0.47 3.47
pair_coeff 813 813  0.07 3.55
pair_coeff 814 814  0.14 2.9
pair_coeff 815 815  0.066 3.5
pair_coeff 816 816  0.06 2.9
pair_coeff 817 817  0.17 3.25
pair_coeff 818 818  0.07 3.55
pair_coeff 819 819  0.066 3.5
pair_coeff 820 820  0.105 3.75
pair_coeff 821 821  0.105 3.75
pair_coeff 822 822  0.21 2.96
pair_coeff 823 823  0.17 3.25
pair_coeff 824 824  0.0 0.0
pair_coeff 825 825  0.17 3.12
pair_coeff 826 826  0.0 0.0
pair_coeff 827 827  0.066 3.5
pair_coeff 828 828  0.066 3.5
pair_coeff 829 829  0.07 3.55
pair_coeff 830 830  0.07 3.55
pair_coeff 831 831  0.07 3.55
pair_coeff 832 832  0.07 3.55
pair_coeff 833 833  0.07 3.55
pair_coeff 834 834  0.0125 1.96
pair_coeff 835 835  0.066 3.5
pair_coeff 836 836  0.066 3.5
pair_coeff 837 837  0.066 3.5
pair_coeff 838 838  0.6 3.75
pair_coeff 839 839  0.03 2.5
pair_coeff 840 840  0.17 3.25
pair_coeff 841 841  0.07 3.55
pair_coeff 842 842  0.07 3.55
pair_coeff 843 843  0.17 3.25
pair_coeff 844 844  0.07 3.55
pair_coeff 845 845  0.105 3.75
pair_coeff 846 846  0.21 2.96
pair_coeff 847 847  0.17 3.25
pair_coeff 848 848  0.066 3.5
pair_coeff 849 849  0.066 3.5
pair_coeff 850 850  0.066 3.5
pair_coeff 851 851  0.066 3.5
pair_coeff 852 852  0.015 2.42
pair_coeff 853 853  0.105 3.75
pair_coeff 854 854  0.21 2.96
pair_coeff 855 855  0.015 2.42
pair_coeff 856 856  0.066 3.5
pair_coeff 857 857  0.066 3.5
pair_coeff 858 858  0.066 3.5
pair_coeff 859 859  0.066 3.5
pair_coeff 860 860  0.066 3.5
pair_coeff 861 861  0.066 3.5
pair_coeff 862 862  0.066 3.5
pair_coeff 863 863  0.066 3.5
pair_coeff 864 864  0.066 3.5
pair_coeff 865 865  0.066 3.5
pair_coeff 866 866  0.1 4.0
pair_coeff 867 867  0.1 4.0
pair_coeff 868 868  0.1 4.0
pair_coeff 869 869  0.1 4.0
pair_coeff 870 870  0.03 2.5
pair_coeff 871 871  0.066 3.5
pair_coeff 872 872  0.066 3.5
pair_coeff 873 873  0.066 3.5
pair_coeff 874 874  0.066 3.5
pair_coeff 875 875  0.72 3.08
pair_coeff 876 876  0.11779 4.18
pair_coeff 877 877  0.09 4.51
pair_coeff 878 878  0.07 5.15
pair_coeff 879 879  0.018279 2.7
pair_coeff 880 880  0.002772 3.35
pair_coeff 881 881  0.000328 4.06
pair_coeff 882 882  0.000171 4.32
pair_coeff 883 883  8.1e-05 4.82
pair_coeff 884 884  0.875044 2.91
pair_coeff 885 885  0.449657 3.47
pair_coeff 886 886  0.118226 3.82
pair_coeff 887 887  0.047096 4.18
pair_coeff 888 888  0.066 3.5
pair_coeff 889 889  0.066 3.5
pair_coeff 890 890  0.066 3.5
pair_coeff 891 891  0.066 3.5
pair_coeff 892 892  0.03 2.5
pair_coeff 893 893  0.17 3.25
pair_coeff 894 894  0.07 3.55
pair_coeff 895 895  0.17 3.25
pair_coeff 896 896  0.07 3.55
pair_coeff 897 897  0.076 3.55
pair_coeff 898 898  0.076 3.55
pair_coeff 899 899  0.03 2.42
pair_coeff 900 900  0.086 3.3
pair_coeff 901 901  0.086 3.3
pair_coeff 902 902  0.086 3.3
pair_coeff 903 903  0.086 3.3
pair_coeff 904 904  0.086 3.3
pair_coeff 905 905  0.21 2.96
pair_coeff 906 906  0.066 3.5
# pair_coeff 907 907 0.2000000 3.740 # P # JPCB 2004, 2038
# pair_coeff 908 908 0.0610000 3.118 # F # JPCB 2004, 2038
# pair_coeff 909 909 0.0005000 2.870 # Li # JCTC 2006
pair_coeff 907 907 0.222 2.95 # F JBCB 2010 114 3592â€“3600
# pair_coeff 911 911 0.0005000 2.870 # Li # JCTC 2006
# pair_coeff 912 912 0.17 3.25 # N # oplsaa #421 sulfonamide
# pair_coeff 913 913 0.17 2.96 # O # oplsaa #416 sulfonamide
# pair_coeff 914 914 0.25 3.55 # S # oplsaa #415 sulfonamide
pair_coeff 908 908 0.095 3.5814 # B https://pubs.acs.org/doi/10.1021/ct900009a
pair_coeff 909 909 0.0610000 3.118 # F # JPCB 2004, 2038

bond_coeff 1  367.0 1.38
bond_coeff 2  420.0 1.357
bond_coeff 3  367.0 1.36
bond_coeff 4  450.0 1.279
bond_coeff 5  300.0 0.3
bond_coeff 6  420.0 1.34
bond_coeff 7  420.0 1.354
bond_coeff 8  420.0 1.354
bond_coeff 9  420.0 1.354
bond_coeff 10  420.0 1.354
bond_coeff 11  420.0 1.354
bond_coeff 12  420.0 1.354
bond_coeff 13  461.0 1.57
bond_coeff 14  260.0 1.526
bond_coeff 15  317.0 1.522
bond_coeff 16  386.0 1.425
bond_coeff 17  260.0 1.526
bond_coeff 18  260.0 1.526
bond_coeff 19  317.0 1.5
bond_coeff 20  317.0 1.51
bond_coeff 21  260.0 1.526
bond_coeff 22  317.0 1.5
bond_coeff 23  222.0 1.81
bond_coeff 24  222.0 1.81
bond_coeff 25  320.0 1.425
bond_coeff 26  337.0 1.449
bond_coeff 27  382.0 1.448
bond_coeff 28  317.0 1.51
bond_coeff 29  260.0 1.526
bond_coeff 30  367.0 1.471
bond_coeff 31  337.0 1.463
bond_coeff 32  317.0 1.495
bond_coeff 33  350.0 1.51
bond_coeff 34  570.0 1.229
bond_coeff 35  450.0 1.364
bond_coeff 36  317.0 1.522
bond_coeff 37  317.0 1.522
bond_coeff 38  469.0 1.4
bond_coeff 39  317.0 1.522
bond_coeff 40  400.0 1.444
bond_coeff 41  214.0 1.327
bond_coeff 42  300.0 1.79
bond_coeff 43  490.0 1.335
bond_coeff 44  317.0 1.522
bond_coeff 45  340.0 1.09
bond_coeff 46  410.0 1.444
bond_coeff 47  400.0 1.49
bond_coeff 48  385.0 1.46
bond_coeff 49  656.0 1.25
bond_coeff 50  457.0 1.358
bond_coeff 51  418.0 1.388
bond_coeff 52  447.0 1.419
bond_coeff 53  300.0 1.98
bond_coeff 54  400.0 1.49
bond_coeff 55  385.0 1.46
bond_coeff 56  424.0 1.383
bond_coeff 57  490.0 1.335
bond_coeff 58  553.0 0.3
bond_coeff 59  525.0 1.48
bond_coeff 60  570.0 1.229
bond_coeff 61  700.0 1.171
bond_coeff 62  386.0 1.425
bond_coeff 63  553.0 0.945
bond_coeff 64  386.0 1.425
bond_coeff 65  320.0 1.41
bond_coeff 66  250.0 1.47
bond_coeff 67  400.0 1.38
bond_coeff 68  340.0 0.3
bond_coeff 69  320.0 1.45
bond_coeff 70  450.0 1.37
bond_coeff 71  450.0 1.364
bond_coeff 72  320.0 1.38
bond_coeff 73  230.0 1.61
bond_coeff 74  450.0 1.67
bond_coeff 75  94.0 1.8
bond_coeff 76  374.0 1.64
bond_coeff 77  260.0 1.526
bond_coeff 78  260.0 1.526
bond_coeff 79  317.0 1.5
bond_coeff 80  260.0 1.526
bond_coeff 81  317.0 1.5
bond_coeff 82  222.0 1.81
bond_coeff 83  222.0 1.81
bond_coeff 84  320.0 1.425
bond_coeff 85  337.0 1.449
bond_coeff 86  382.0 1.448
bond_coeff 87  317.0 1.51
bond_coeff 88  260.0 1.526
bond_coeff 89  367.0 1.471
bond_coeff 90  337.0 1.463
bond_coeff 91  222.0 1.81
bond_coeff 92  337.0 1.475
bond_coeff 93  553.0 0.945
bond_coeff 94  340.0 0.1
bond_coeff 95  530.0 1.34
bond_coeff 96  530.0 1.34
bond_coeff 97  530.0 1.34
bond_coeff 98  260.0 1.526
bond_coeff 99  317.0 1.5
bond_coeff 100  317.0 1.5
bond_coeff 101  320.0 1.425
bond_coeff 102  337.0 1.449
bond_coeff 103  382.0 1.448
bond_coeff 104  337.0 1.475
bond_coeff 105  530.0 1.34
bond_coeff 106  317.0 1.5
bond_coeff 107  530.0 1.34
bond_coeff 108  222.0 1.76
bond_coeff 109  469.0 1.4
bond_coeff 110  469.0 1.4
bond_coeff 111  469.0 1.4
bond_coeff 112  469.0 1.4
bond_coeff 113  268.0 1.529
bond_coeff 114  317.0 1.5
bond_coeff 115  222.0 1.81
bond_coeff 116  222.0 1.81
bond_coeff 117  390.0 1.43
bond_coeff 118  390.0 1.47
bond_coeff 119  320.0 1.41
bond_coeff 120  245.0 1.781
bond_coeff 121  340.0 1.79
bond_coeff 122  337.0 1.449
bond_coeff 123  340.0 0.3
bond_coeff 124  382.0 1.448
bond_coeff 125  340.0 1.09
bond_coeff 126  317.0 1.51
bond_coeff 127  317.0 1.51
bond_coeff 128  317.0 1.51
bond_coeff 129  268.0 1.529
bond_coeff 130  367.0 1.471
bond_coeff 131  337.0 1.463
bond_coeff 132  337.0 1.449
bond_coeff 133  337.0 1.475
bond_coeff 134  317.0 1.51
bond_coeff 135  212.0 1.843
bond_coeff 136  245.0 1.945
bond_coeff 137  200.0 2.19
bond_coeff 138  340.0 1.77
bond_coeff 139  317.0 1.495
bond_coeff 140  317.0 1.504
bond_coeff 141  317.0 1.504
bond_coeff 142  317.0 1.504
bond_coeff 143  317.0 1.495
bond_coeff 144  337.0 1.449
bond_coeff 145  280.0 1.51
bond_coeff 146  532.8 1.46
bond_coeff 147  382.0 1.448
bond_coeff 148  375.0 1.49
bond_coeff 149  212.0 1.82
bond_coeff 150  337.0 1.475
bond_coeff 151  337.0 1.449
bond_coeff 152  187.0 1.86
bond_coeff 153  317.0 1.51
bond_coeff 154  530.0 1.34
bond_coeff 155  274.0 1.336
bond_coeff 156  250.0 1.74
bond_coeff 157  166.0 2.038
bond_coeff 158  300.0 1.685
bond_coeff 159  250.0 1.73
bond_coeff 160  340.0 0.5
bond_coeff 161  250.0 1.76
bond_coeff 162  250.0 1.76
bond_coeff 163  250.0 1.73
bond_coeff 164  250.0 1.76
bond_coeff 165  250.0 1.74
bond_coeff 166  222.0 1.81
bond_coeff 167  144.0 2.15
bond_coeff 168  340.0 0.1
bond_coeff 169  550.0 1.12
bond_coeff 170  650.0 1.157
bond_coeff 171  400.0 1.41
bond_coeff 172  550.0 1.24
bond_coeff 173  1150.0 1.21
bond_coeff 174  330.0 1.637
bond_coeff 175  420.0 1.08
bond_coeff 176  400.0 1.426
bond_coeff 177  400.0 1.451
bond_coeff 178  400.0 1.426
bond_coeff 179  330.0 1.784
bond_coeff 180  400.0 1.451
bond_coeff 181  400.0 1.451
bond_coeff 182  250.0 1.47
bond_coeff 183  200.0 1.69
bond_coeff 184  320.0 1.45
bond_coeff 185  340.0 0.3
bond_coeff 186  320.0 1.45
bond_coeff 187  450.0 1.37
bond_coeff 188  450.0 1.364
bond_coeff 189  320.0 1.38
bond_coeff 190  340.0 1.36
bond_coeff 191  462.0 1.399
bond_coeff 192  230.0 1.61
bond_coeff 193  462.0 1.357
bond_coeff 194  340.0 1.36
bond_coeff 195  374.0 1.64
bond_coeff 196  300.0 0.3
bond_coeff 197  300.0 1.725
bond_coeff 198  300.0 1.725
bond_coeff 199  300.0 1.725
bond_coeff 200  300.0 1.725
bond_coeff 201  300.0 1.725
bond_coeff 202  300.0 1.725
bond_coeff 203  300.0 1.725
bond_coeff 204  223.0 2.02
bond_coeff 205  700.0 1.53
bond_coeff 206  340.0 0.5
bond_coeff 207  340.0 0.3
bond_coeff 208  700.0 1.44
bond_coeff 209  367.0 0.3
bond_coeff 210  434.0 1.01
bond_coeff 211  427.0 1.381
bond_coeff 212  427.0 1.381
bond_coeff 213  434.0 1.67
bond_coeff 214  427.0 1.381
bond_coeff 215  427.0 1.381
bond_coeff 216  337.0 1.449
bond_coeff 217  500.0 1.27
bond_coeff 218  40.0 2.05
bond_coeff 219  340.0 0.3
bond_coeff 220  340.0 0.3
bond_coeff 221  340.0 0.1
bond_coeff 222  340.0 0.3
bond_coeff 223  340.0 0.3
bond_coeff 224  367.0 0.3
bond_coeff 225  340.0 0.3
bond_coeff 226  340.0 0.3
bond_coeff 227  367.0 0.3
bond_coeff 228  367.0 0.3
bond_coeff 229  300.0 0.3
bond_coeff 230  340.0 0.1
bond_coeff 231  600.0 0.9572
bond_coeff 232  900.0 0.15
bond_coeff 233  40.0 2.05
bond_coeff 234  529.6 0.9572
bond_coeff 235  600.0 0.9572
bond_coeff 236  900.0 0.175
bond_coeff 237  600.0 0.9572
bond_coeff 238  900.0 0.7
bond_coeff 239  600.0 1.0
bond_coeff 240  350.0 1.445
bond_coeff 241  434.0 1.01
bond_coeff 242  481.0 1.34
bond_coeff 243  340.0 1.77
bond_coeff 244  382.0 1.448
bond_coeff 245  266.0 1.74
bond_coeff 246  434.0 1.01
bond_coeff 247  434.0 1.01
bond_coeff 248  434.0 1.01
bond_coeff 249  434.0 1.01
bond_coeff 250  434.0 1.01
bond_coeff 251  434.0 1.01
bond_coeff 252  166.0 1.48
bond_coeff 253  340.0 1.08
bond_coeff 254  340.0 1.08
bond_coeff 255  340.0 1.09
bond_coeff 256  340.0 1.08
bond_coeff 257  340.0 1.088
bond_coeff 258  532.8 1.084
bond_coeff 259  166.0 1.48
bond_coeff 260  340.0 1.08
bond_coeff 261  549.0 1.34
bond_coeff 262  427.0 1.433
bond_coeff 263  549.0 1.34
bond_coeff 264  448.0 1.365
bond_coeff 265  367.0 1.08
bond_coeff 266  300.0 1.9
bond_coeff 267  250.0 2.08
bond_coeff 268  385.0 1.46
bond_coeff 269  317.0 1.51
bond_coeff 270  448.0 1.365
bond_coeff 271  700.0 1.305
bond_coeff 272  469.0 1.4
bond_coeff 273  367.0 1.08
bond_coeff 274  427.0 1.433
bond_coeff 275  400.0 1.45
bond_coeff 276  481.0 1.34
bond_coeff 277  483.0 1.339
bond_coeff 278  427.0 1.381
bond_coeff 279  469.0 1.404
bond_coeff 280  414.0 1.391
bond_coeff 281  220.0 1.78
bond_coeff 282  300.0 1.87
bond_coeff 283  250.0 2.08
bond_coeff 284  340.0 1.77
bond_coeff 285  469.0 1.4
bond_coeff 286  546.0 1.367
bond_coeff 287  469.0 1.4
bond_coeff 288  469.0 1.421
bond_coeff 289  317.0 1.49
bond_coeff 290  382.0 1.385
bond_coeff 291  400.0 1.46
bond_coeff 292  427.0 1.433
bond_coeff 293  367.0 1.08
bond_coeff 294  340.0 1.08
bond_coeff 295  367.0 1.08
bond_coeff 296  367.0 1.08
bond_coeff 297  367.0 1.08
bond_coeff 298  367.0 1.08
bond_coeff 299  367.0 1.08
bond_coeff 300  367.0 1.08
bond_coeff 301  385.0 1.46
bond_coeff 302  457.0 1.29
bond_coeff 303  549.0 1.365
bond_coeff 304  385.0 1.46
bond_coeff 305  337.0 1.475
bond_coeff 306  525.0 1.48
bond_coeff 307  434.0 1.01
bond_coeff 308  434.0 1.01
bond_coeff 309  481.0 1.34
bond_coeff 310  481.0 1.34
bond_coeff 311  500.0 1.32
bond_coeff 312  502.0 1.324
bond_coeff 313  461.0 1.354
bond_coeff 314  461.0 1.354
bond_coeff 315  483.0 1.339
bond_coeff 316  550.0 1.21
bond_coeff 317  457.0 1.29
bond_coeff 318  436.0 1.374
bond_coeff 319  400.0 1.349
bond_coeff 320  440.0 1.371
bond_coeff 321  428.0 1.38
bond_coeff 322  477.0 1.343
bond_coeff 323  427.0 1.381
bond_coeff 324  427.0 1.381
bond_coeff 325  385.0 1.44
bond_coeff 326  367.0 1.08
bond_coeff 327  367.0 1.08
bond_coeff 328  367.0 1.08
bond_coeff 329  520.0 1.37
bond_coeff 330  414.0 1.391
bond_coeff 331  388.0 1.459
bond_coeff 332  447.0 1.419
bond_coeff 333  469.0 1.424
bond_coeff 334  436.0 1.374
bond_coeff 335  400.0 1.28
bond_coeff 336  529.0 1.304
bond_coeff 337  488.0 1.335
bond_coeff 338  410.0 1.394
bond_coeff 339  410.0 1.394
bond_coeff 340  410.0 1.32
bond_coeff 341  367.0 1.08
bond_coeff 342  440.0 1.371
bond_coeff 343  367.0 1.08
bond_coeff 344  108.0 2.25
bond_coeff 345  300.0 1.87
bond_coeff 346  300.0 1.87
bond_coeff 347  300.0 1.87
bond_coeff 348  300.0 1.87
bond_coeff 349  300.0 1.87
bond_coeff 350  151.0 2.19
bond_coeff 351  250.0 2.08
bond_coeff 352  250.0 2.08
bond_coeff 353  250.0 2.08
bond_coeff 354  250.0 2.08
bond_coeff 355  250.0 2.08
bond_coeff 356  108.0 2.44
bond_coeff 357  500.0 1.8
bond_coeff 358  546.0 1.352
bond_coeff 359  385.0 1.46
bond_coeff 360  520.0 1.37
bond_coeff 361  520.0 1.37
bond_coeff 362  385.0 1.46
bond_coeff 363  512.0 1.375
bond_coeff 364  385.0 1.46
bond_coeff 365  546.0 1.367
bond_coeff 366  520.0 1.37
bond_coeff 367  520.0 1.37
bond_coeff 368  385.0 1.46
bond_coeff 369  385.0 1.46
bond_coeff 370  385.0 1.46
bond_coeff 371  469.0 1.424
bond_coeff 372  469.0 1.424
bond_coeff 373  490.0 1.335
bond_coeff 374  317.0 1.522
bond_coeff 375  337.0 1.449
bond_coeff 376  260.0 1.52
bond_coeff 377  550.0 1.225
bond_coeff 378  94.0 2.32
bond_coeff 379  549.0 1.345
bond_coeff 380  370.4589 1.606 # LiPF6 P-F JPCB 2004, 16893
bond_coeff 381  1879.0 1.575 # LiFSI S-F JBCB 2010 114 3592â€“3600
bond_coeff 382  434.0 1.67 # LiFSI S-N
bond_coeff 383  700.0 1.44 # LiFSI S-O
bond_coeff 384  350.0 1.51 # LiDFOB C-C
bond_coeff 385  1879.0 1.575 # LiDFOB  F-B
bond_coeff 386  1879.0 1.575 # LiDFOB O-B
bond_coeff 387  450.0 1.364 # LiDFOB O-C
bond_coeff 388  570.0 1.229 # LiDFOB O=C


angle_coeff 1  33.0 109.47
angle_coeff 2  50.0 109.5
angle_coeff 3  63.0 112.4
angle_coeff 4  63.0 112.4
angle_coeff 5  80.0 109.5
angle_coeff 6  63.0 112.4
angle_coeff 7  63.0 112.4
angle_coeff 8  80.0 109.5
angle_coeff 9  63.0 112.4
angle_coeff 10  63.0 112.4
angle_coeff 11  63.0 112.4
angle_coeff 12  63.0 112.4
angle_coeff 13  80.0 109.5
angle_coeff 14  63.0 114.0
angle_coeff 15  63.0 112.4
angle_coeff 16  50.0 108.6
angle_coeff 17  50.0 114.7
angle_coeff 18  50.0 114.7
angle_coeff 19  80.0 109.5
angle_coeff 20  80.0 109.5
angle_coeff 21  80.0 109.5
angle_coeff 22  80.0 110.3
angle_coeff 23  80.0 111.2
angle_coeff 24  56.2 109.47
angle_coeff 25  56.2 109.47
angle_coeff 26  56.2 109.47
angle_coeff 27  56.2 109.47
angle_coeff 28  80.0 111.2
angle_coeff 29  63.0 112.4
angle_coeff 30  63.0 114.0
angle_coeff 31  63.0 112.4
angle_coeff 32  63.0 112.4
angle_coeff 33  80.0 111.2
angle_coeff 34  80.0 111.2
angle_coeff 35  63.0 115.6
angle_coeff 36  80.0 120.4
angle_coeff 37  80.0 121.0
angle_coeff 38  80.0 121.4
angle_coeff 39  80.0 126.0
angle_coeff 40  80.0 121.0
angle_coeff 41  80.0 120.4
angle_coeff 42  70.0 115.0
angle_coeff 43  80.0 120.4
angle_coeff 44  70.0 120.0
angle_coeff 45  85.0 120.0
angle_coeff 46  70.0 108.0
angle_coeff 47  70.0 116.0
angle_coeff 48  80.0 111.0
angle_coeff 49  80.0 117.2
angle_coeff 50  80.0 120.4
angle_coeff 51  81.0 111.4
angle_coeff 52  81.0 111.4
angle_coeff 53  83.0 123.4
angle_coeff 54  75.0 109.0
angle_coeff 55  75.0 119.0
angle_coeff 56  70.0 114.2
angle_coeff 57  70.0 116.6
angle_coeff 58  70.0 116.6
angle_coeff 59  70.0 116.6
angle_coeff 60  70.0 116.6
angle_coeff 61  70.0 116.6
angle_coeff 62  80.0 122.9
angle_coeff 63  81.0 111.4
angle_coeff 64  70.0 116.0
angle_coeff 65  80.0 120.4
angle_coeff 66  35.0 115.0
angle_coeff 67  35.0 115.0
angle_coeff 68  35.0 123.0
angle_coeff 69  40.0 114.0
angle_coeff 70  40.0 115.0
angle_coeff 71  40.0 115.0
angle_coeff 72  70.0 115.5
angle_coeff 73  80.0 125.3
angle_coeff 74  35.0 115.0
angle_coeff 75  70.0 115.5
angle_coeff 76  70.0 116.0
angle_coeff 77  70.0 120.0
angle_coeff 78  80.0 120.4
angle_coeff 79  81.0 111.4
angle_coeff 80  85.0 120.0
angle_coeff 81  70.0 116.0
angle_coeff 82  80.0 116.0
angle_coeff 83  80.0 124.0
angle_coeff 84  65.0 117.0
angle_coeff 85  70.0 117.0
angle_coeff 86  70.0 117.0
angle_coeff 87  70.0 117.0
angle_coeff 88  70.0 117.0
angle_coeff 89  80.0 126.0
angle_coeff 90  80.0 126.0
angle_coeff 91  35.0 122.0
angle_coeff 92  80.0 122.5
angle_coeff 93  70.0 114.1
angle_coeff 94  70.0 118.6
angle_coeff 95  70.0 118.6
angle_coeff 96  80.0 120.6
angle_coeff 97  70.0 111.3
angle_coeff 98  70.0 111.3
angle_coeff 99  80.0 128.8
angle_coeff 100  75.0 109.0
angle_coeff 101  75.0 119.0
angle_coeff 102  70.0 116.0
angle_coeff 103  80.0 120.4
angle_coeff 104  80.0 128.2
angle_coeff 105  70.0 115.4
angle_coeff 106  70.0 118.6
angle_coeff 107  80.0 120.9
angle_coeff 108  70.0 116.6
angle_coeff 109  80.0 122.9
angle_coeff 110  10.0 117.0
angle_coeff 111  35.0 113.0
angle_coeff 112  35.0 113.0
angle_coeff 113  55.0 108.5
angle_coeff 114  55.0 108.5
angle_coeff 115  55.0 108.5
angle_coeff 116  55.0 108.5
angle_coeff 117  49.0 105.4
angle_coeff 118  5.0 109.47
angle_coeff 119  10.0 109.47
angle_coeff 120  10.0 109.47
angle_coeff 121  35.0 109.0
angle_coeff 122  10.0 109.47
angle_coeff 123  35.0 113.0
angle_coeff 124  55.0 108.5
angle_coeff 125  55.0 108.5
angle_coeff 126  100.0 120.5
angle_coeff 127  74.0 110.0
angle_coeff 128  100.0 126.0
angle_coeff 129  10.0 109.47
angle_coeff 130  33.0 109.47
angle_coeff 131  63.0 112.4
angle_coeff 132  63.0 111.1
angle_coeff 133  80.0 109.5
angle_coeff 134  63.0 111.1
angle_coeff 135  63.0 111.5
angle_coeff 136  63.0 112.4
angle_coeff 137  80.0 109.5
angle_coeff 138  63.0 111.1
angle_coeff 139  63.0 111.5
angle_coeff 140  63.0 111.5
angle_coeff 141  63.0 111.5
angle_coeff 142  80.0 109.5
angle_coeff 143  80.0 109.5
angle_coeff 144  80.0 109.5
angle_coeff 145  80.0 109.5
angle_coeff 146  63.0 110.1
angle_coeff 147  80.0 109.5
angle_coeff 148  80.0 109.7
angle_coeff 149  80.0 109.7
angle_coeff 150  56.2 109.47
angle_coeff 151  56.2 109.47
angle_coeff 152  56.2 109.47
angle_coeff 153  56.2 109.47
angle_coeff 154  80.0 109.7
angle_coeff 155  63.0 112.4
angle_coeff 156  80.0 109.5
angle_coeff 157  80.0 109.5
angle_coeff 158  80.0 109.5
angle_coeff 159  80.0 109.5
angle_coeff 160  70.0 124.0
angle_coeff 161  70.0 124.0
angle_coeff 162  70.0 124.0
angle_coeff 163  70.0 118.0
angle_coeff 164  70.0 118.0
angle_coeff 165  70.0 118.0
angle_coeff 166  70.0 124.0
angle_coeff 167  70.0 124.0
angle_coeff 168  70.0 124.0
angle_coeff 169  70.0 118.0
angle_coeff 170  70.0 118.0
angle_coeff 171  70.0 118.0
angle_coeff 172  70.0 118.0
angle_coeff 173  70.0 118.0
angle_coeff 174  70.0 118.0
angle_coeff 175  70.0 118.0
angle_coeff 176  70.0 124.0
angle_coeff 177  70.0 124.0
angle_coeff 178  70.0 124.0
angle_coeff 179  70.0 124.0
angle_coeff 180  70.0 118.0
angle_coeff 181  70.0 118.0
angle_coeff 182  70.0 118.0
angle_coeff 183  70.0 120.0
angle_coeff 184  85.0 120.0
angle_coeff 185  85.0 120.0
angle_coeff 186  85.0 120.0
angle_coeff 187  85.0 120.0
angle_coeff 188  85.0 120.0
angle_coeff 189  77.0 109.1
angle_coeff 190  40.0 109.5
angle_coeff 191  50.0 109.5
angle_coeff 192  63.0 111.1
angle_coeff 193  63.0 111.1
angle_coeff 194  40.0 109.5
angle_coeff 195  40.0 109.5
angle_coeff 196  63.0 109.5
angle_coeff 197  50.0 109.5
angle_coeff 198  50.0 109.5
angle_coeff 199  58.35 112.7
angle_coeff 200  63.0 111.1
angle_coeff 201  50.0 108.6
angle_coeff 202  50.0 114.7
angle_coeff 203  58.35 112.7
angle_coeff 204  50.0 109.5
angle_coeff 205  50.0 109.5
angle_coeff 206  69.0 109.8
angle_coeff 207  69.0 109.8
angle_coeff 208  78.0 111.7
angle_coeff 209  50.0 108.6
angle_coeff 210  50.0 109.5
angle_coeff 211  63.0 110.1
angle_coeff 212  80.0 109.7
angle_coeff 213  80.0 109.7
angle_coeff 214  50.0 114.7
angle_coeff 215  56.2 109.47
angle_coeff 216  56.2 109.47
angle_coeff 217  56.2 109.47
angle_coeff 218  56.2 109.47
angle_coeff 219  80.0 111.2
angle_coeff 220  33.0 107.8
angle_coeff 221  35.0 108.5
angle_coeff 222  35.0 108.5
angle_coeff 223  35.0 109.5
angle_coeff 224  35.0 109.5
angle_coeff 225  35.0 109.5
angle_coeff 226  35.0 109.5
angle_coeff 227  35.0 109.5
angle_coeff 228  35.0 109.5
angle_coeff 229  35.0 109.5
angle_coeff 230  35.0 109.5
angle_coeff 231  35.0 109.5
angle_coeff 232  37.5 110.7
angle_coeff 233  40.0 107.0
angle_coeff 234  51.0 107.6
angle_coeff 235  35.0 109.5
angle_coeff 236  50.0 109.5
angle_coeff 237  63.0 111.1
angle_coeff 238  63.0 112.4
angle_coeff 239  35.0 109.5
angle_coeff 240  40.0 109.5
angle_coeff 241  40.0 109.5
angle_coeff 242  50.0 109.5
angle_coeff 243  50.0 109.5
angle_coeff 244  50.0 109.5
angle_coeff 245  50.0 114.7
angle_coeff 246  63.0 112.0
angle_coeff 247  63.0 114.0
angle_coeff 248  63.0 114.0
angle_coeff 249  80.0 111.2
angle_coeff 250  35.0 109.5
angle_coeff 251  37.5 110.7
angle_coeff 252  50.0 109.5
angle_coeff 253  58.35 112.7
angle_coeff 254  35.0 109.5
angle_coeff 255  80.0 111.2
angle_coeff 256  80.0 111.2
angle_coeff 257  35.0 109.5
angle_coeff 258  80.0 111.2
angle_coeff 259  35.0 109.5
angle_coeff 260  63.0 110.1
angle_coeff 261  65.0 109.0
angle_coeff 262  35.0 109.5
angle_coeff 263  80.0 111.2
angle_coeff 264  35.0 109.5
angle_coeff 265  63.0 114.0
angle_coeff 266  41.0 109.5
angle_coeff 267  43.0 109.5
angle_coeff 268  43.0 109.5
angle_coeff 269  51.0 107.6
angle_coeff 270  69.0 109.8
angle_coeff 271  69.0 110.0
angle_coeff 272  69.0 110.0
angle_coeff 273  78.0 111.7
angle_coeff 274  75.0 111.0
angle_coeff 275  75.0 112.0
angle_coeff 276  35.0 109.5
angle_coeff 277  50.0 108.6
angle_coeff 278  50.0 109.5
angle_coeff 279  35.0 109.5
angle_coeff 280  63.0 115.6
angle_coeff 281  35.0 109.5
angle_coeff 282  63.0 114.0
angle_coeff 283  35.0 109.5
angle_coeff 284  50.0 114.7
angle_coeff 285  63.0 114.0
angle_coeff 286  35.0 109.5
angle_coeff 287  63.0 114.0
angle_coeff 288  35.0 109.5
angle_coeff 289  63.0 115.6
angle_coeff 290  35.0 109.5
angle_coeff 291  80.0 110.0
angle_coeff 292  80.0 113.0
angle_coeff 293  37.5 110.7
angle_coeff 294  35.0 105.0
angle_coeff 295  63.0 105.0
angle_coeff 296  35.0 109.5
angle_coeff 297  80.0 111.2
angle_coeff 298  35.0 105.0
angle_coeff 299  63.0 111.1
angle_coeff 300  41.0 109.5
angle_coeff 301  43.0 109.5
angle_coeff 302  35.0 109.5
angle_coeff 303  50.0 109.5
angle_coeff 304  50.0 109.5
angle_coeff 305  35.0 109.5
angle_coeff 306  80.0 109.7
angle_coeff 307  35.0 109.5
angle_coeff 308  60.0 112.0
angle_coeff 309  70.0 124.0
angle_coeff 310  70.0 124.0
angle_coeff 311  70.0 124.0
angle_coeff 312  70.0 118.0
angle_coeff 313  70.0 118.0
angle_coeff 314  70.0 118.0
angle_coeff 315  70.0 124.0
angle_coeff 316  70.0 124.0
angle_coeff 317  70.0 124.0
angle_coeff 318  70.0 118.0
angle_coeff 319  70.0 118.0
angle_coeff 320  70.0 118.0
angle_coeff 321  70.0 118.0
angle_coeff 322  70.0 118.0
angle_coeff 323  70.0 118.0
angle_coeff 324  70.0 118.0
angle_coeff 325  70.0 124.0
angle_coeff 326  70.0 124.0
angle_coeff 327  70.0 124.0
angle_coeff 328  70.0 124.0
angle_coeff 329  70.0 118.0
angle_coeff 330  70.0 118.0
angle_coeff 331  70.0 118.0
angle_coeff 332  70.0 118.0
angle_coeff 333  70.0 118.0
angle_coeff 334  70.0 118.0
angle_coeff 335  70.0 118.0
angle_coeff 336  35.0 92.07
angle_coeff 337  44.0 96.0
angle_coeff 338  44.0 96.0
angle_coeff 339  44.0 96.0
angle_coeff 340  5.0 109.47
angle_coeff 341  10.0 109.47
angle_coeff 342  10.0 160.0
angle_coeff 343  150.0 96.7
angle_coeff 344  150.0 96.7
angle_coeff 345  150.0 96.7
angle_coeff 346  150.0 96.7
angle_coeff 347  50.0 96.0
angle_coeff 348  62.0 98.9
angle_coeff 349  62.0 98.9
angle_coeff 350  68.0 103.7
angle_coeff 351  68.0 103.7
angle_coeff 352  68.0 103.7
angle_coeff 353  65.0 100.0
angle_coeff 354  5.0 109.47
angle_coeff 355  10.0 109.47
angle_coeff 356  10.0 160.0
angle_coeff 357  150.0 96.7
angle_coeff 358  150.0 96.7
angle_coeff 359  150.0 96.7
angle_coeff 360  150.0 96.7
angle_coeff 361  62.0 104.2
angle_coeff 362  62.0 104.2
angle_coeff 363  74.0 92.4
angle_coeff 364  10.0 130.0
angle_coeff 365  10.0 130.0
angle_coeff 366  74.0 97.0
angle_coeff 367  10.0 130.0
angle_coeff 368  74.0 90.0
angle_coeff 369  74.0 97.0
angle_coeff 370  74.0 97.0
angle_coeff 371  62.0 94.0
angle_coeff 372  10.0 109.47
angle_coeff 373  33.0 109.47
angle_coeff 374  150.0 180.0
angle_coeff 375  170.0 180.0
angle_coeff 376  100.0 180.0
angle_coeff 377  150.0 180.0
angle_coeff 378  140.0 180.0
angle_coeff 379  150.0 180.0
angle_coeff 380  10.0 90.0
angle_coeff 381  112.0 180.0
angle_coeff 382  150.0 180.0
angle_coeff 383  160.0 180.0
angle_coeff 384  150.0 180.0
angle_coeff 385  160.0 180.0
angle_coeff 386  160.0 180.0
angle_coeff 387  150.0 180.0
angle_coeff 388  150.0 180.0
angle_coeff 389  100.0 111.8
angle_coeff 390  83.0 116.9
angle_coeff 391  83.0 116.9
angle_coeff 392  100.0 111.8
angle_coeff 393  55.0 108.5
angle_coeff 394  55.0 108.5
angle_coeff 395  83.0 116.9
angle_coeff 396  100.0 111.8
angle_coeff 397  60.0 109.5
angle_coeff 398  83.0 116.9
angle_coeff 399  5.0 109.47
angle_coeff 400  10.0 109.47
angle_coeff 401  75.0 111.0
angle_coeff 402  10.0 109.47
angle_coeff 403  75.0 111.0
angle_coeff 404  75.0 111.0
angle_coeff 405  75.0 111.0
angle_coeff 406  83.0 116.9
angle_coeff 407  100.0 111.8
angle_coeff 408  60.0 109.5
angle_coeff 409  100.0 113.0
angle_coeff 410  100.0 113.0
angle_coeff 411  100.0 113.0
angle_coeff 412  70.0 104.5
angle_coeff 413  10.0 125.0
angle_coeff 414  100.0 120.5
angle_coeff 415  100.0 120.5
angle_coeff 416  100.0 120.5
angle_coeff 417  100.0 120.5
angle_coeff 418  100.0 120.5
angle_coeff 419  100.0 120.5
angle_coeff 420  10.0 125.0
angle_coeff 421  70.0 106.5
angle_coeff 422  70.0 107.0
angle_coeff 423  10.0 125.0
angle_coeff 424  70.0 104.0
angle_coeff 425  70.0 106.5
angle_coeff 426  70.0 106.5
angle_coeff 427  70.0 108.9
angle_coeff 428  20.0 145.0
angle_coeff 429  40.0 130.0
angle_coeff 430  33.0 109.47
angle_coeff 431  62.0 96.0
angle_coeff 432  74.0 107.0
angle_coeff 433  10.0 90.0
angle_coeff 434  50.0 121.9
angle_coeff 435  70.0 126.4
angle_coeff 436  46.0 115.7
angle_coeff 437  50.0 121.9
angle_coeff 438  50.0 121.9
angle_coeff 439  50.0 118.0
angle_coeff 440  50.0 121.9
angle_coeff 441  50.0 118.0
angle_coeff 442  50.0 121.9
angle_coeff 443  70.0 112.0
angle_coeff 444  70.0 108.6
angle_coeff 445  10.0 109.5
angle_coeff 446  10.0 100.0
angle_coeff 447  35.0 110.2
angle_coeff 448  35.0 119.8
angle_coeff 449  35.0 120.0
angle_coeff 450  38.0 118.4
angle_coeff 451  38.0 118.4
angle_coeff 452  38.0 118.4
angle_coeff 453  38.0 118.4
angle_coeff 454  35.0 119.8
angle_coeff 455  50.0 118.0
angle_coeff 456  50.0 121.9
angle_coeff 457  70.0 118.0
angle_coeff 458  35.0 120.0
angle_coeff 459  35.0 118.0
angle_coeff 460  70.0 125.2
angle_coeff 461  50.0 120.0
angle_coeff 462  100.0 111.0
angle_coeff 463  35.0 119.8
angle_coeff 464  70.0 118.0
angle_coeff 465  70.0 117.0
angle_coeff 466  35.0 119.8
angle_coeff 467  70.0 118.0
angle_coeff 468  35.0 119.8
angle_coeff 469  70.0 118.0
angle_coeff 470  40.0 113.0
angle_coeff 471  55.0 128.0
angle_coeff 472  70.0 121.0
angle_coeff 473  20.0 126.0
angle_coeff 474  33.0 109.47
angle_coeff 475  75.0 104.52
angle_coeff 476  50.0 52.26
angle_coeff 477  34.05 104.52
angle_coeff 478  75.0 109.5
angle_coeff 479  50.0 54.75
angle_coeff 480  75.0 104.52
angle_coeff 481  50.0 109.47
angle_coeff 482  50.0 110.6948
angle_coeff 483  75.0 109.47
angle_coeff 484  51.8 107.2
angle_coeff 485  51.8 107.2
angle_coeff 486  51.8 107.2
angle_coeff 487  51.8 107.2
angle_coeff 488  51.8 107.2
angle_coeff 489  51.8 107.2
angle_coeff 490  51.8 107.2
angle_coeff 491  51.8 107.2
angle_coeff 492  51.8 107.2
angle_coeff 493  51.8 107.2
angle_coeff 494  63.0 111.1
angle_coeff 495  10.0 100.0
angle_coeff 496  35.0 109.5
angle_coeff 497  43.2 108.1
angle_coeff 498  43.2 108.1
angle_coeff 499  43.2 108.1
angle_coeff 500  43.6 106.4
angle_coeff 501  10.0 109.5
angle_coeff 502  35.0 116.0
angle_coeff 503  50.0 116.0
angle_coeff 504  50.0 116.0
angle_coeff 505  63.0 112.0
angle_coeff 506  35.0 115.0
angle_coeff 507  50.0 108.6
angle_coeff 508  50.0 108.6
angle_coeff 509  50.0 109.5
angle_coeff 510  33.0 109.47
angle_coeff 511  10.0 109.5
angle_coeff 512  33.0 109.47
angle_coeff 513  37.5 109.47
angle_coeff 514  80.0 108.0
angle_coeff 515  80.0 121.5
angle_coeff 516  85.0 119.7
angle_coeff 517  70.0 119.7
angle_coeff 518  70.0 130.0
angle_coeff 519  10.0 90.0
angle_coeff 520  35.0 114.5
angle_coeff 521  35.0 117.0
angle_coeff 522  35.0 117.0
angle_coeff 523  35.0 119.7
angle_coeff 524  35.0 120.0
angle_coeff 525  50.0 112.0
angle_coeff 526  60.0 114.0
angle_coeff 527  2.0 90.0
angle_coeff 528  35.0 120.0
angle_coeff 529  70.0 123.0
angle_coeff 530  70.0 123.0
angle_coeff 531  70.0 124.0
angle_coeff 532  70.0 124.0
angle_coeff 533  75.0 121.5
angle_coeff 534  80.0 121.5
angle_coeff 535  85.0 119.4
angle_coeff 536  85.0 120.7
angle_coeff 537  35.0 123.3
angle_coeff 538  85.0 117.0
angle_coeff 539  85.0 119.7
angle_coeff 540  2.0 90.0
angle_coeff 541  35.0 120.0
angle_coeff 542  70.0 123.0
angle_coeff 543  70.0 123.0
angle_coeff 544  70.0 124.0
angle_coeff 545  35.0 119.1
angle_coeff 546  70.0 120.0
angle_coeff 547  70.0 120.0
angle_coeff 548  70.0 121.2
angle_coeff 549  85.0 119.4
angle_coeff 550  35.0 119.1
angle_coeff 551  35.0 119.7
angle_coeff 552  60.0 114.0
angle_coeff 553  75.0 120.0
angle_coeff 554  35.0 135.0
angle_coeff 555  70.0 119.7
angle_coeff 556  70.0 124.0
angle_coeff 557  35.0 119.1
angle_coeff 558  35.0 119.1
angle_coeff 559  70.0 120.0
angle_coeff 560  70.0 120.0
angle_coeff 561  70.0 121.2
angle_coeff 562  85.0 119.4
angle_coeff 563  40.0 121.0
angle_coeff 564  80.0 122.0
angle_coeff 565  80.0 122.0
angle_coeff 566  80.0 125.0
angle_coeff 567  70.0 120.0
angle_coeff 568  85.0 120.0
angle_coeff 569  70.0 119.7
angle_coeff 570  10.0 90.0
angle_coeff 571  63.0 120.0
angle_coeff 572  70.0 120.0
angle_coeff 573  70.0 120.0
angle_coeff 574  70.0 120.0
angle_coeff 575  70.0 120.0
angle_coeff 576  70.0 120.0
angle_coeff 577  70.0 120.0
angle_coeff 578  70.0 120.0
angle_coeff 579  70.0 120.0
angle_coeff 580  70.0 120.0
angle_coeff 581  70.0 124.0
angle_coeff 582  75.0 120.0
angle_coeff 583  80.0 120.0
angle_coeff 584  80.0 120.0
angle_coeff 585  85.0 119.4
angle_coeff 586  85.0 120.0
angle_coeff 587  2.0 90.0
angle_coeff 588  35.0 119.1
angle_coeff 589  35.0 120.0
angle_coeff 590  35.0 120.0
angle_coeff 591  70.0 124.0
angle_coeff 592  70.0 120.0
angle_coeff 593  70.0 120.0
angle_coeff 594  70.0 120.1
angle_coeff 595  70.0 120.1
angle_coeff 596  35.0 116.0
angle_coeff 597  70.0 116.0
angle_coeff 598  70.0 116.0
angle_coeff 599  70.0 119.3
angle_coeff 600  70.0 120.0
angle_coeff 601  70.0 121.5
angle_coeff 602  70.0 121.5
angle_coeff 603  70.0 124.0
angle_coeff 604  75.0 120.0
angle_coeff 605  35.0 120.0
angle_coeff 606  70.0 108.7
angle_coeff 607  70.0 116.0
angle_coeff 608  70.0 120.0
angle_coeff 609  70.0 121.5
angle_coeff 610  70.0 123.3
angle_coeff 611  35.0 120.0
angle_coeff 612  63.0 120.0
angle_coeff 613  70.0 108.7
angle_coeff 614  70.0 117.3
angle_coeff 615  70.0 123.5
angle_coeff 616  70.0 128.6
angle_coeff 617  70.0 128.6
angle_coeff 618  35.0 119.1
angle_coeff 619  70.0 108.7
angle_coeff 620  70.0 123.3
angle_coeff 621  85.0 119.4
angle_coeff 622  75.0 120.0
angle_coeff 623  75.0 120.0
angle_coeff 624  85.0 119.4
angle_coeff 625  35.0 120.0
angle_coeff 626  85.0 120.0
angle_coeff 627  35.0 126.9
angle_coeff 628  63.0 106.4
angle_coeff 629  70.0 107.4
angle_coeff 630  35.0 120.0
angle_coeff 631  63.0 120.0
angle_coeff 632  70.0 124.0
angle_coeff 633  35.0 128.2
angle_coeff 634  70.0 111.8
angle_coeff 635  70.0 124.1
angle_coeff 636  85.0 120.0
angle_coeff 637  70.0 124.0
angle_coeff 638  10.0 90.0
angle_coeff 639  35.0 120.0
angle_coeff 640  2.0 90.0
angle_coeff 641  35.0 120.0
angle_coeff 642  70.0 118.7
angle_coeff 643  70.0 124.0
angle_coeff 644  35.0 123.3
angle_coeff 645  85.0 117.0
angle_coeff 646  2.0 90.0
angle_coeff 647  35.0 120.0
angle_coeff 648  70.0 124.0
angle_coeff 649  70.0 124.0
angle_coeff 650  35.0 106.0
angle_coeff 651  35.0 122.0
angle_coeff 652  35.0 120.0
angle_coeff 653  70.0 124.0
angle_coeff 654  70.0 124.0
angle_coeff 655  40.0 109.5
angle_coeff 656  50.0 109.5
angle_coeff 657  50.0 109.5
angle_coeff 658  80.0 109.5
angle_coeff 659  80.0 109.5
angle_coeff 660  92.6 111.55
angle_coeff 661  92.6 111.55
angle_coeff 662  33.0 109.5
angle_coeff 663  35.0 109.5
angle_coeff 664  35.0 109.5
angle_coeff 665  37.5 110.7
angle_coeff 666  35.0 109.5
angle_coeff 667  50.0 109.5
angle_coeff 668  50.0 109.5
angle_coeff 669  50.0 113.0
angle_coeff 670  10.0 100.0
angle_coeff 671  43.6 109.5
angle_coeff 672  10.0 100.0
angle_coeff 673  55.0 114.0
angle_coeff 674  35.0 109.5
angle_coeff 675  35.0 109.5
angle_coeff 676  35.0 109.5
angle_coeff 677  35.0 109.5
angle_coeff 678  35.0 109.5
angle_coeff 679  10.0 100.0
angle_coeff 680  50.0 118.0
angle_coeff 681  35.0 113.0
angle_coeff 682  35.0 118.4
angle_coeff 683  35.0 120.0
angle_coeff 684  50.0 123.2
angle_coeff 685  50.0 123.2
angle_coeff 686  50.0 123.2
angle_coeff 687  35.0 118.4
angle_coeff 688  35.0 118.4
angle_coeff 689  35.0 120.0
angle_coeff 690  35.0 120.0
angle_coeff 691  35.0 120.0
angle_coeff 692  70.0 120.5
angle_coeff 693  70.0 120.0
angle_coeff 694  5.0 120.0
angle_coeff 695  35.0 113.0
angle_coeff 696  50.0 118.0
angle_coeff 697  70.0 117.0
angle_coeff 698  70.0 120.5
angle_coeff 699  70.0 117.0
angle_coeff 700  70.0 117.0
angle_coeff 701  5.0 119.8
angle_coeff 702  70.0 118.6
angle_coeff 703  70.0 118.6
angle_coeff 704  70.0 111.0
angle_coeff 705  70.0 112.2
angle_coeff 706  70.0 111.0
angle_coeff 707  70.0 117.0
angle_coeff 708  70.0 114.0
angle_coeff 709  70.0 126.4
angle_coeff 710  35.0 116.8
angle_coeff 711  35.0 119.2
angle_coeff 712  70.0 121.6
angle_coeff 713  35.0 118.0
angle_coeff 714  70.0 125.2
angle_coeff 715  70.0 125.2
angle_coeff 716  30.0 125.8
angle_coeff 717  70.0 125.8
angle_coeff 718  56.0 113.1
angle_coeff 719  56.0 118.4
angle_coeff 720  70.0 118.4
angle_coeff 721  70.0 118.4
angle_coeff 722  30.0 128.8
angle_coeff 723  70.0 105.4
angle_coeff 724  70.0 109.8
angle_coeff 725  70.0 128.8
angle_coeff 726  35.0 123.1
angle_coeff 727  35.0 120.0
angle_coeff 728  56.0 113.1
angle_coeff 729  70.0 109.8
angle_coeff 730  35.0 120.0
angle_coeff 731  56.0 113.1
angle_coeff 732  70.0 109.8
angle_coeff 733  70.0 109.8
angle_coeff 734  70.0 109.8
angle_coeff 735  70.0 111.6
angle_coeff 736  35.0 120.0
angle_coeff 737  70.0 109.8
angle_coeff 738  70.0 116.0
angle_coeff 739  35.0 115.45
angle_coeff 740  70.0 115.5
angle_coeff 741  70.0 119.3
angle_coeff 742  70.0 123.3
angle_coeff 743  70.0 129.1
angle_coeff 744  35.0 115.45
angle_coeff 745  70.0 120.0
angle_coeff 746  85.0 134.9
angle_coeff 747  70.0 126.2
angle_coeff 748  70.0 106.2
angle_coeff 749  70.0 110.6
angle_coeff 750  70.0 111.0
angle_coeff 751  70.0 120.0
angle_coeff 752  70.0 127.7
angle_coeff 753  70.0 127.7
angle_coeff 754  85.0 117.3
angle_coeff 755  85.0 119.2
angle_coeff 756  70.0 111.0
angle_coeff 757  70.0 126.2
angle_coeff 758  70.0 130.0
angle_coeff 759  70.0 132.4
angle_coeff 760  85.0 134.9
angle_coeff 761  85.0 134.9
angle_coeff 762  85.0 108.8
angle_coeff 763  85.0 116.2
angle_coeff 764  85.0 116.2
angle_coeff 765  70.0 130.0
angle_coeff 766  70.0 107.3
angle_coeff 767  70.0 107.7
angle_coeff 768  85.0 108.8
angle_coeff 769  85.0 134.9
angle_coeff 770  85.0 134.9
angle_coeff 771  70.0 106.2
angle_coeff 772  70.0 126.2
angle_coeff 773  70.0 125.2
angle_coeff 774  10.0 125.0
angle_coeff 775  10.0 125.0
angle_coeff 776  70.0 103.8
angle_coeff 777  10.0 125.0
angle_coeff 778  70.0 109.0
angle_coeff 779  70.0 110.0
angle_coeff 780  70.0 110.0
angle_coeff 781  70.0 104.1
angle_coeff 782  70.0 110.0
angle_coeff 783  70.0 104.1
angle_coeff 784  70.0 105.3
angle_coeff 785  35.0 120.0
angle_coeff 786  35.0 120.0
angle_coeff 787  70.0 113.9
angle_coeff 788  35.0 123.05
angle_coeff 789  35.0 123.05
angle_coeff 790  35.0 120.0
angle_coeff 791  35.0 123.05
angle_coeff 792  70.0 113.9
angle_coeff 793  45.0 102.6
angle_coeff 794  100.0 108.23
angle_coeff 795  45.0 109.5
angle_coeff 796  45.0 102.6
angle_coeff 797  45.0 102.6
angle_coeff 798  45.0 109.5
angle_coeff 799  100.0 108.23
angle_coeff 800  45.0 109.5
angle_coeff 801  45.0 109.5
angle_coeff 802  45.0 109.5
angle_coeff 803  45.0 108.23
angle_coeff 804  45.0 109.5
angle_coeff 805  100.0 108.23
angle_coeff 806  140.0 119.9
angle_coeff 807  33.0 109.47
angle_coeff 808  33.0 109.47
angle_coeff 809  150.0 180.0
angle_coeff 810  62.0 98.9
angle_coeff 811  62.0 102.0
angle_coeff 812  75.0 96.4
angle_coeff 813  74.0 108.7
angle_coeff 814  74.0 108.9
angle_coeff 815  104.0 119.0
angle_coeff 816  100.0 103.0
angle_coeff 817  120.0 107.0
angle_coeff 818  62.0 102.0
angle_coeff 819  74.0 108.9
angle_coeff 820  62.0 102.0
angle_coeff 821  74.0 107.2
angle_coeff 822  75.0 96.4
angle_coeff 823  100.0 103.0
angle_coeff 824  62.0 102.0
angle_coeff 825  35.0 126.8
angle_coeff 826  70.0 128.6
angle_coeff 827  70.0 128.6
angle_coeff 828  35.0 126.8
angle_coeff 829  70.0 125.0
angle_coeff 830  70.0 125.0
angle_coeff 831  85.0 106.4
angle_coeff 832  70.0 132.8
angle_coeff 833  70.0 132.8
angle_coeff 834  70.0 104.4
angle_coeff 835  85.0 122.7
angle_coeff 836  85.0 122.7
angle_coeff 837  70.0 125.0
angle_coeff 838  70.0 125.0
angle_coeff 839  70.0 120.2
angle_coeff 840  35.0 117.0
angle_coeff 841  35.0 125.0
angle_coeff 842  35.0 120.0
angle_coeff 843  70.0 120.0
angle_coeff 844  70.0 125.0
angle_coeff 845  70.0 125.0
angle_coeff 846  70.0 126.2
angle_coeff 847  35.0 120.0
angle_coeff 848  70.0 115.0
angle_coeff 849  70.0 115.0
angle_coeff 850  70.0 120.0
angle_coeff 851  70.0 125.0
angle_coeff 852  70.0 126.1
angle_coeff 853  70.0 126.2
angle_coeff 854  70.0 120.0
angle_coeff 855  70.0 120.0
angle_coeff 856  70.0 122.0
angle_coeff 857  70.0 130.0
angle_coeff 858  70.0 106.2
angle_coeff 859  70.0 127.7
angle_coeff 860  35.0 120.0
angle_coeff 861  70.0 111.0
angle_coeff 862  70.0 124.5
angle_coeff 863  35.0 128.2
angle_coeff 864  70.0 111.0
angle_coeff 865  70.0 130.7
angle_coeff 866  70.0 125.0
angle_coeff 867  70.0 121.6
angle_coeff 868  70.0 125.0
angle_coeff 869  35.0 113.4
angle_coeff 870  35.0 125.0
angle_coeff 871  35.0 130.7
angle_coeff 872  35.0 130.7
angle_coeff 873  70.0 110.0
angle_coeff 874  35.0 121.6
angle_coeff 875  70.0 121.6
angle_coeff 876  70.0 121.6
angle_coeff 877  85.0 120.0
angle_coeff 878  35.0 120.0
angle_coeff 879  70.0 118.9
angle_coeff 880  35.0 120.0
angle_coeff 881  70.0 108.7
angle_coeff 882  35.0 130.7
angle_coeff 883  70.0 106.3
angle_coeff 884  70.0 108.0
angle_coeff 885  70.0 111.0
angle_coeff 886  70.0 130.7
angle_coeff 887  70.0 120.0
angle_coeff 888  70.0 120.0
angle_coeff 889  70.0 120.0
angle_coeff 890  70.0 121.6
angle_coeff 891  70.0 121.6
angle_coeff 892  35.0 132.1
angle_coeff 893  70.0 107.7
angle_coeff 894  70.0 110.6
angle_coeff 895  70.0 111.0
angle_coeff 896  70.0 111.9
angle_coeff 897  70.0 132.1
angle_coeff 898  70.0 132.1
angle_coeff 899  70.0 132.1
angle_coeff 900  85.0 120.0
angle_coeff 901  35.0 120.0
angle_coeff 902  70.0 121.6
angle_coeff 903  35.0 130.7
angle_coeff 904  70.0 106.3
angle_coeff 905  70.0 130.7
angle_coeff 906  63.0 120.0
angle_coeff 907  70.0 124.0
angle_coeff 908  63.0 120.0
angle_coeff 909  63.0 120.0
angle_coeff 910  63.0 120.0
angle_coeff 911  63.0 120.0
angle_coeff 912  70.0 124.0
angle_coeff 913  63.0 120.0
angle_coeff 914  63.0 120.0
angle_coeff 915  35.0 120.0
angle_coeff 916  35.0 126.8
angle_coeff 917  70.0 128.6
angle_coeff 918  35.0 125.7
angle_coeff 919  35.0 126.8
angle_coeff 920  70.0 103.8
angle_coeff 921  70.0 110.4
angle_coeff 922  70.0 125.0
angle_coeff 923  70.0 125.0
angle_coeff 924  70.0 130.0
angle_coeff 925  85.0 106.4
angle_coeff 926  70.0 125.7
angle_coeff 927  35.0 127.5
angle_coeff 928  70.0 107.3
angle_coeff 929  70.0 107.3
angle_coeff 930  70.0 127.5
angle_coeff 931  70.0 103.8
angle_coeff 932  35.0 128.6
angle_coeff 933  35.0 118.9
angle_coeff 934  70.0 118.9
angle_coeff 935  70.0 118.9
angle_coeff 936  70.0 111.9
angle_coeff 937  80.0 134.0
angle_coeff 938  70.0 91.0
angle_coeff 939  80.0 134.0
angle_coeff 940  55.0 127.0
angle_coeff 941  50.0 94.0
angle_coeff 942  50.0 126.0
angle_coeff 943  35.0 108.0
angle_coeff 944  35.0 114.3
angle_coeff 945  35.0 114.3
angle_coeff 946  35.0 114.3
angle_coeff 947  37.5 108.0
angle_coeff 948  35.0 109.5
angle_coeff 949  37.5 110.0
angle_coeff 950  70.0 117.0
angle_coeff 951  35.0 111.0
angle_coeff 952  55.0 109.0
angle_coeff 953  30.0 79.2
angle_coeff 954  37.5 117.2
angle_coeff 955  37.5 117.2
angle_coeff 956  37.5 117.2
angle_coeff 957  37.5 126.0
angle_coeff 958  55.0 128.0
angle_coeff 959  63.0 85.0
angle_coeff 960  63.0 114.0
angle_coeff 961  80.0 89.0
angle_coeff 962  172.8 120.0
angle_coeff 963  144.0 120.0
angle_coeff 964  35.0 109.5
angle_coeff 965  43.6 106.4
angle_coeff 966  50.0 112.5
angle_coeff 967  50.0 120.5
angle_coeff 968  80.0 117.5
angle_coeff 969  80.0 117.5
angle_coeff 970  80.0 125.0
angle_coeff 971  10.0 109.5
angle_coeff 972  10.0 109.5
angle_coeff 973  45.0 109.5
angle_coeff 974  70.0 117.6
angle_coeff 975  70.0 117.6
angle_coeff 976  35.0 119.2
angle_coeff 977  35.0 119.2
angle_coeff 978  70.0 121.2
angle_coeff 979  70.0 121.6
angle_coeff 980  70.0 117.6
angle_coeff 981  70.0 121.2
angle_coeff 982  30.0 125.8
angle_coeff 983  70.0 125.8
angle_coeff 984  70.0 125.8
angle_coeff 985  70.0 125.8
angle_coeff 986  70.0 125.8
angle_coeff 987  30.0 128.8
angle_coeff 988  70.0 105.4
angle_coeff 989  70.0 128.8
angle_coeff 990  70.0 128.8
angle_coeff 991  70.0 128.8
angle_coeff 992  70.0 128.8
angle_coeff 993  20.0 109.5
angle_coeff 994  20.0 109.5
angle_coeff 995  50.0 118.0
angle_coeff 996  50.0 121.9
angle_coeff 997  35.0 110.5
angle_coeff 998  60.0 110.0
angle_coeff 999  60.0 100.0
angle_coeff 1000  60.0 110.0
angle_coeff 1001  35.0 110.5
angle_coeff 1002  35.0 109.5
angle_coeff 1003  35.0 110.5
angle_coeff 1004  35.0 109.5
angle_coeff 1005  35.0 110.5
angle_coeff 1006  35.0 110.5
angle_coeff 1007  35.0 110.5
angle_coeff 1008  50.0 112.0
angle_coeff 1009  35.0 123.3
angle_coeff 1010  35.0 120.0
angle_coeff 1011  70.0 124.0
angle_coeff 1012  35.0 120.0
angle_coeff 1013  70.0 124.0
angle_coeff 1014  70.0 124.0
angle_coeff 1015  85.0 117.0
angle_coeff 1016  160.0 180.0
angle_coeff 1017  160.0 180.0
angle_coeff 1018  139.2209 90.00 # JPCB 2004, 16893
angle_coeff 1019  34.77535 180.00 # JPCB 2004, 16893
angle_coeff 1020  902.00 103.00 # LiFSI F-S-N JBCB 2010 114 3592â€“3600
angle_coeff 1021  1077.00 104.10 # LiFSI F-S-O JBCB 2010 114 3592â€“3600
angle_coeff 1022  1 1# LiFSI O-S-N args
angle_coeff 1023  1 1# LiFSI O-S-O
angle_coeff 1024  1 1# LiFSI S-N-S
angle_coeff 1025 1 1 # LiDFOB C-O-B
angle_coeff 1026 1 1 # LiDFOB F-B-F
angle_coeff 1027 1 1 # LiDFOB F-B-O
angle_coeff 1028 1 1 # LiDFOB O-B-O
angle_coeff 1029 1 1 # LiDFOB O-C-C
angle_coeff 1030 1 1 # LiDFOB O-C-O

dihedral_coeff 1  -2.5 1.25 3.1 0.0
dihedral_coeff 2  -2.5 1.25 3.1 0.0
dihedral_coeff 3  -2.0 0.7 3.0 0.0
dihedral_coeff 4  -2.0 0.7 3.0 0.0
dihedral_coeff 5  -3.4 1.25 3.1 0.0
dihedral_coeff 6  -3.4 1.25 3.1 0.0
dihedral_coeff 7  -3.4 1.25 3.1 0.0
dihedral_coeff 8  -3.4 1.25 3.1 0.0
dihedral_coeff 9  -2.0 0.5 3.25 0.0
dihedral_coeff 10  -3.4 1.25 3.1 0.0
dihedral_coeff 11  -2.0 0.5 3.25 0.0
dihedral_coeff 12  -3.4 1.25 3.1 0.0
dihedral_coeff 13  0.3 0.0 1.3 0.0
dihedral_coeff 14  0.3 0.0 1.3 0.0
dihedral_coeff 15  0.3 0.0 1.3 0.0
dihedral_coeff 16  -2.5 1.25 3.1 0.0
dihedral_coeff 17  -3.4 1.25 3.1 0.0
dihedral_coeff 18  -3.4 1.25 3.1 0.0
dihedral_coeff 19  -7.4 3.0 1.8 0.0
dihedral_coeff 20  -8.4 3.0 1.8 0.0
dihedral_coeff 21  1.6 3.2 0.0 0.0
dihedral_coeff 22  0.0 0.5 0.0 0.0
dihedral_coeff 23  0.0 0.0 0.0 0.0
dihedral_coeff 24  0.0 0.0 0.0 0.0
dihedral_coeff 25  0.7 -1.5 0.0 0.0
dihedral_coeff 26  -0.5 0.2 0.0 0.0
dihedral_coeff 27  0.8 -0.76 0.0 0.0
dihedral_coeff 28  -0.9 0.3 0.0 0.0
dihedral_coeff 29  0.0 0.0 0.3 0.0
dihedral_coeff 30  3.0 5.5 0.0 0.0
dihedral_coeff 31  0.0 5.0 0.0 0.0
dihedral_coeff 32  1.5 5.5 0.0 0.0
dihedral_coeff 33  -2.0 5.0 0.0 0.0
dihedral_coeff 34  1.5 5.5 0.0 0.0
dihedral_coeff 35  4.0 5.0 0.0 0.0
dihedral_coeff 36  0.0 0.0 0.0 0.0
dihedral_coeff 37  0.0 0.0 0.36 0.0
dihedral_coeff 38  0.0 0.0 0.085 0.0
dihedral_coeff 39  0.0 0.0 0.0 0.0
dihedral_coeff 40  0.0 0.0 0.0 0.0
dihedral_coeff 41  -0.65 0.0 0.0 0.0
dihedral_coeff 42  0.0 0.82 0.0 0.0
dihedral_coeff 43  0.0 0.0 0.0 0.0
dihedral_coeff 44  0.0 0.0 0.0 0.0
dihedral_coeff 45  0.0 0.546 0.0 0.0
dihedral_coeff 46  0.0 1.412 0.0 0.0
dihedral_coeff 47  5.26 0.82 0.0 0.0
dihedral_coeff 48  0.0 0.0 0.0 0.0
dihedral_coeff 49  1.454 -0.144 -0.775 0.0
dihedral_coeff 50  0.0 0.0 0.275 0.0
dihedral_coeff 51  0.0 0.0 -0.553 0.0
dihedral_coeff 52  0.0 0.0 0.132 0.0
dihedral_coeff 53  0.0 0.0 0.0 0.0
dihedral_coeff 54  0.0 0.0 0.36 0.0
dihedral_coeff 55  1.173 0.189 -1.2 0.0
dihedral_coeff 56  0.65 0.0 0.0 0.0
dihedral_coeff 57  1.816 1.222 1.581 0.0
dihedral_coeff 58  0.0 0.0 0.0 0.0
dihedral_coeff 59  0.0 0.0 0.0 0.0
dihedral_coeff 60  0.0 0.0 0.36 0.0
dihedral_coeff 61  0.0 0.0 0.275 0.0
dihedral_coeff 62  0.0 0.82 0.0 0.0
dihedral_coeff 63  0.0 0.82 0.0 0.0
dihedral_coeff 64  0.0 0.0 0.0 0.0
dihedral_coeff 65  0.0 0.0 0.0 0.0
dihedral_coeff 66  0.0 0.0 0.36 0.0
dihedral_coeff 67  0.0 0.0 0.0 0.0
dihedral_coeff 68  0.0 5.124 0.0 0.0
dihedral_coeff 69  0.0 5.0 0.0 0.0
dihedral_coeff 70  4.669 5.124 0.0 0.0
dihedral_coeff 71  1.5 5.0 0.0 0.0
dihedral_coeff 72  -2.0 5.0 0.0 0.0
dihedral_coeff 73  4.669 5.124 0.0 0.0
dihedral_coeff 74  4.0 5.0 0.0 0.0
dihedral_coeff 75  0.4 4.9 0.0 0.0
dihedral_coeff 76  0.0 4.9 0.0 0.0
dihedral_coeff 77  0.0 6.603 0.0 0.0
dihedral_coeff 78  0.0 6.089 0.0 0.0
dihedral_coeff 79  0.0 4.9 0.0 0.0
dihedral_coeff 80  0.0 6.089 0.0 0.0
dihedral_coeff 81  0.0 6.089 0.0 0.0
dihedral_coeff 82  0.0 6.089 0.0 0.0
dihedral_coeff 83  2.3 6.089 0.0 0.0
dihedral_coeff 84  0.0 4.9 0.0 0.0
dihedral_coeff 85  4.542 6.603 1.045 0.0
dihedral_coeff 86  2.3 6.089 0.0 0.0
dihedral_coeff 87  0.0 4.9 0.0 0.0
dihedral_coeff 88  2.3 6.089 0.0 0.0
dihedral_coeff 89  2.3 6.089 0.0 0.0
dihedral_coeff 90  0.0 4.9 0.0 0.0
dihedral_coeff 91  2.3 6.089 0.0 0.0
dihedral_coeff 92  4.6 0.0 0.0 0.0
dihedral_coeff 93  0.0 4.9 0.0 0.0
dihedral_coeff 94  2.3 6.089 0.0 0.0
dihedral_coeff 95  0.0 4.9 0.0 0.0
dihedral_coeff 96  0.0 4.9 0.0 0.0
dihedral_coeff 97  0.0 4.9 0.0 0.0
dihedral_coeff 98  2.3 6.089 0.0 0.0
dihedral_coeff 99  2.3 6.089 0.0 0.0
dihedral_coeff 100  2.3 6.089 0.0 0.0
dihedral_coeff 101  2.3 6.089 0.0 0.0
dihedral_coeff 102  2.3 6.089 0.0 0.0
dihedral_coeff 103  2.3 6.089 0.0 0.0
dihedral_coeff 104  0.0 4.9 0.0 0.0
dihedral_coeff 105  2.3 6.089 0.0 0.0
dihedral_coeff 106  2.3 6.089 0.0 0.0
dihedral_coeff 107  2.3 6.089 0.0 0.0
dihedral_coeff 108  0.9 0.23 -0.505 0.0
dihedral_coeff 109  0.0 0.0 0.0 0.0
dihedral_coeff 110  2.5 6.0 0.0 0.0
dihedral_coeff 111  3.2 -3.0 0.0 0.0
dihedral_coeff 112  0.0 0.0 0.0 0.0
dihedral_coeff 113  2.0 0.0 0.0 0.0
dihedral_coeff 114  0.0 0.0 0.0 0.0
dihedral_coeff 115  2.0 0.0 0.0 0.0
dihedral_coeff 116  0.0 2.1 0.0 0.0
dihedral_coeff 117  0.0 2.1 0.0 0.0
dihedral_coeff 118  0.0 0.2 0.0 0.0
dihedral_coeff 119  0.0 2.1 0.0 0.0
dihedral_coeff 120  0.0 1.1 0.0 0.0
dihedral_coeff 121  0.0 0.2 0.0 0.0
dihedral_coeff 122  0.9 0.23 -0.505 0.0
dihedral_coeff 123  2.5 6.0 0.0 0.0
dihedral_coeff 124  3.2 -3.0 0.0 0.0
dihedral_coeff 125  0.8 -3.0 0.0 0.0
dihedral_coeff 126  0.0 14.0 0.0 0.0
dihedral_coeff 127  0.0 14.0 0.0 0.0
dihedral_coeff 128  0.0 14.0 0.0 0.0
dihedral_coeff 129  0.0 14.0 0.0 0.0
dihedral_coeff 130  0.0 7.0 0.0 0.0
dihedral_coeff 131  0.0 7.0 0.0 0.0
dihedral_coeff 132  0.0 0.0 0.0 0.0
dihedral_coeff 133  2.0 1.0 0.0 0.0
dihedral_coeff 134  0.0 1.0 0.0 0.0
dihedral_coeff 135  -2.0 1.0 0.0 0.0
dihedral_coeff 136  0.0 1.0 0.0 0.0
dihedral_coeff 137  -0.75 1.5 0.0 0.0
dihedral_coeff 138  0.75 1.5 0.0 0.0
dihedral_coeff 139  0.0 1.5 0.0 0.0
dihedral_coeff 140  0.0 1.5 0.0 0.0
dihedral_coeff 141  0.0 2.17 0.0 0.0
dihedral_coeff 142  0.0 7.25 0.0 0.0
dihedral_coeff 143  0.0 2.1 0.0 0.0
dihedral_coeff 144  0.0 2.1 0.0 0.0
dihedral_coeff 145  0.0 1.1 0.0 0.0
dihedral_coeff 146  0.0 1.1 0.0 0.0
dihedral_coeff 147  0.0 4.9 0.0 0.0
dihedral_coeff 148  0.0 4.9 0.0 0.0
dihedral_coeff 149  2.5 6.0 0.0 0.0
dihedral_coeff 150  3.2 -3.0 0.0 0.0
dihedral_coeff 151  0.0 0.0 0.0 0.0
dihedral_coeff 152  0.3 0.0 0.5 0.0
dihedral_coeff 153  0.3 0.0 0.5 0.0
dihedral_coeff 154  0.0 0.0 0.2 0.0
dihedral_coeff 155  0.0 0.0 0.2 0.0
dihedral_coeff 156  -0.356 -0.174 0.492 0.0
dihedral_coeff 157  0.0 0.0 0.352 0.0
dihedral_coeff 158  -0.9 0.0 0.0 0.0
dihedral_coeff 159  -0.9 0.0 0.0 0.0
dihedral_coeff 160  -0.9 0.0 0.0 0.0
dihedral_coeff 161  0.0 0.0 0.3 0.0
dihedral_coeff 162  0.0 0.0 0.3 0.0
dihedral_coeff 163  5.519 -6.7 0.581 0.0
dihedral_coeff 164  2.722 -5.154 0.0 0.0
dihedral_coeff 165  0.0 1.682 0.0 0.0
dihedral_coeff 166  0.0 1.682 0.0 0.0
dihedral_coeff 167  -1.257 -1.806 0.003 0.0
dihedral_coeff 168  3.0 3.0 0.0 0.0
dihedral_coeff 169  0.0 0.0 0.0 0.0
dihedral_coeff 170  0.0 0.0 0.0 0.0
dihedral_coeff 171  -0.75 0.0 0.0 0.0
dihedral_coeff 172  0.75 0.0 0.0 0.0
dihedral_coeff 173  2.0 0.0 0.0 0.0
dihedral_coeff 174  -4.344 -1.714 0.0 0.0
dihedral_coeff 175  1.711 -0.5 0.663 0.0
dihedral_coeff 176  1.428 0.086 0.029 0.0
dihedral_coeff 177  -2.5 0.0 0.25 0.0
dihedral_coeff 178  0.0 0.0 0.54 0.0
dihedral_coeff 179  0.3 -0.4 0.4 0.0
dihedral_coeff 180  0.0 0.0 0.4 0.0
dihedral_coeff 181  -0.55 0.0 1.0 0.0
dihedral_coeff 182  -6.18 0.0 0.0 0.0
dihedral_coeff 183  -2.06 -0.313 0.315 0.0
dihedral_coeff 184  -4.344 -1.714 0.0 0.0
dihedral_coeff 185  -4.344 -1.714 0.0 0.0
dihedral_coeff 186  -9.0 2.0 0.8 0.0
dihedral_coeff 187  0.0 0.0 -0.1 0.0
dihedral_coeff 188  -1.697 -0.456 0.585 0.0
dihedral_coeff 189  -1.697 -0.456 0.585 0.0
dihedral_coeff 190  9.508 0.0 0.0 0.0
dihedral_coeff 191  -1.552 0.0 0.0 0.0
dihedral_coeff 192  4.319 0.0 0.0 0.0
dihedral_coeff 193  8.0 0.0 0.0 0.0
dihedral_coeff 194  6.28 -1.467 2.03 0.0
dihedral_coeff 195  0.0 0.0 0.468 0.0
dihedral_coeff 196  1.3 -0.05 0.2 0.0
dihedral_coeff 197  1.262 -0.198 0.465 0.0
dihedral_coeff 198  2.619 -0.62 0.258 0.0
dihedral_coeff 199  0.0 -0.65 0.0 0.0
dihedral_coeff 200  0.0 0.0 0.4 0.0
dihedral_coeff 201  2.392 -0.674 0.55 0.0
dihedral_coeff 202  0.845 -0.962 0.713 0.0
dihedral_coeff 203  0.0 0.0 0.3 0.0
dihedral_coeff 204  1.3 -0.05 0.2 0.0
dihedral_coeff 205  2.732 -0.229 0.485 0.0
dihedral_coeff 206  0.0 0.0 0.4 0.0
dihedral_coeff 207  0.0 0.0 0.4 0.0
dihedral_coeff 208  1.262 -0.198 0.465 0.0
dihedral_coeff 209  1.964 0.0 0.659 0.0
dihedral_coeff 210  0.0 0.0 0.0 0.0
dihedral_coeff 211  0.0 0.0 0.452 0.0
dihedral_coeff 212  0.0 0.0 0.452 0.0
dihedral_coeff 213  0.0 0.0 0.366 0.0
dihedral_coeff 214  -0.55 0.0 0.0 0.0
dihedral_coeff 215  0.0 0.0 0.468 0.0
dihedral_coeff 216  -0.25 0.0 0.0 0.0
dihedral_coeff 217  2.0 0.0 0.0 0.0
dihedral_coeff 218  0.0 0.0 0.4 0.0
dihedral_coeff 219  11.035 -0.968 0.27 0.0
dihedral_coeff 220  -1.013 -0.709 0.473 0.0
dihedral_coeff 221  -0.8 0.0 0.0 0.0
dihedral_coeff 222  0.0 0.0 0.464 0.0
dihedral_coeff 223  0.845 -0.962 0.713 0.0
dihedral_coeff 224  0.845 -0.962 0.713 0.0
dihedral_coeff 225  0.0 0.0 0.3 0.0
dihedral_coeff 226  0.0 0.0 0.366 0.0
dihedral_coeff 227  0.0 0.0 0.462 0.0
dihedral_coeff 228  0.0 0.0 0.3 0.0
dihedral_coeff 229  0.0 0.0 0.384 0.0
dihedral_coeff 230  0.0 0.0 -0.582 0.0
dihedral_coeff 231  0.0 0.0 0.462 0.0
dihedral_coeff 232  0.0 0.0 0.462 0.0
dihedral_coeff 233  0.0 0.0 0.4 0.0
dihedral_coeff 234  0.0 0.0 0.4 0.0
dihedral_coeff 235  0.0 0.0 0.452 0.0
dihedral_coeff 236  0.0 0.0 0.462 0.0
dihedral_coeff 237  0.0 0.0 0.462 0.0
dihedral_coeff 238  0.0 0.0 0.462 0.0
dihedral_coeff 239  0.0 0.0 0.462 0.0
dihedral_coeff 240  0.0 0.0 0.462 0.0
dihedral_coeff 241  0.0 0.0 0.462 0.0
dihedral_coeff 242  0.0 0.0 -0.225 0.0
dihedral_coeff 243  0.0 0.0 0.3 0.0
dihedral_coeff 244  0.0 0.0 0.464 0.0
dihedral_coeff 245  0.0 0.0 0.45 0.0
dihedral_coeff 246  0.0 0.0 0.366 0.0
dihedral_coeff 247  1.0 0.0 0.0 0.0
dihedral_coeff 248  5.2 -0.5 0.0 0.0
dihedral_coeff 249  -0.759 -0.282 0.68 0.0
dihedral_coeff 250  0.0 0.0 0.48 0.0
dihedral_coeff 251  0.925 -0.576 0.677 0.0
dihedral_coeff 252  1.941 -0.836 0.935 0.0
dihedral_coeff 253  0.0 0.0 0.647 0.0
dihedral_coeff 254  0.0 0.0 0.558 0.0
dihedral_coeff 255  0.0 0.0 0.647 0.0
dihedral_coeff 256  0.0 0.0 0.0 0.0
dihedral_coeff 257  0.0 0.0 0.0 0.0
dihedral_coeff 258  0.0 0.0 0.0 0.0
dihedral_coeff 259  0.0 0.0 0.0 0.0
dihedral_coeff 260  0.0 0.0 0.0 0.0
dihedral_coeff 261  0.0 0.0 0.0 0.0
dihedral_coeff 262  -0.521 -2.018 1.996 0.0
dihedral_coeff 263  -0.5 -1.5 1.0 0.0
dihedral_coeff 264  -0.5 -1.5 1.0 0.0
dihedral_coeff 265  -1.22 -0.126 0.422 0.0
dihedral_coeff 266  0.65 -0.25 0.67 0.0
dihedral_coeff 267  -1.42 -0.62 0.1 0.0
dihedral_coeff 268  0.0 0.0 0.76 0.0
dihedral_coeff 269  0.0 0.0 0.198 0.0
dihedral_coeff 270  0.0 0.0 0.76 0.0
dihedral_coeff 271  0.0 0.0 0.76 0.0
dihedral_coeff 272  0.0 0.0 0.76 0.0
dihedral_coeff 273  0.0 0.0 0.3 0.0
dihedral_coeff 274  0.0 0.0 0.0 0.0
dihedral_coeff 275  -2.365 0.912 -0.85 0.0
dihedral_coeff 276  -1.737 1.251 -3.501 0.0
dihedral_coeff 277  0.0 0.0 0.0 0.0
dihedral_coeff 278  0.0 0.462 0.0 0.0
dihedral_coeff 279  4.753 -0.734 0.0 0.0
dihedral_coeff 280  0.0 0.0 0.0 0.0
dihedral_coeff 281  0.0 0.0 0.0 0.0
dihedral_coeff 282  2.929 -2.533 0.497 0.0
dihedral_coeff 283  2.3 6.089 0.0 0.0
dihedral_coeff 284  0.0 0.0 0.0 0.0
dihedral_coeff 285  0.0 0.0 0.0 0.0
dihedral_coeff 286  0.0 0.0 0.0 0.0
dihedral_coeff 287  0.0 0.0 0.0 0.0
dihedral_coeff 288  1.362 -1.457 0.149 0.0
dihedral_coeff 289  0.0 0.0 0.0 0.0
dihedral_coeff 290  0.416 -0.128 0.695 0.0
dihedral_coeff 291  -0.19 -0.417 0.418 0.0
dihedral_coeff 292  0.0 0.0 0.56 0.0
dihedral_coeff 293  0.0 0.0 0.4 0.0
dihedral_coeff 294  0.0 0.0 0.56 0.0
dihedral_coeff 295  1.711 -0.5 0.663 0.0
dihedral_coeff 296  0.0 0.0 0.468 0.0
dihedral_coeff 297  0.5 0.0 0.0 0.0
dihedral_coeff 298  0.5 0.0 0.0 0.0
dihedral_coeff 299  0.5 0.0 0.0 0.0
dihedral_coeff 300  2.817 -0.169 0.543 0.0
dihedral_coeff 301  0.346 0.405 -0.904 0.0
dihedral_coeff 302  0.346 0.405 -0.904 0.0
dihedral_coeff 303  0.0 0.0 0.3 0.0
dihedral_coeff 304  0.0 0.0 0.318 0.0
dihedral_coeff 305  0.0 0.0 -0.372 0.0
dihedral_coeff 306  0.0 0.0 -0.372 0.0
dihedral_coeff 307  0.0 0.0 -0.25 0.0
dihedral_coeff 308  0.0 -8.0 0.0 0.0
dihedral_coeff 309  0.0 -8.0 0.0 0.0
dihedral_coeff 310  0.0 0.0 0.0 0.0
dihedral_coeff 311  0.0 0.45 0.0 0.0
dihedral_coeff 312  0.0 0.0 0.0 0.0
dihedral_coeff 313  -0.5 0.5 -0.5 0.0
dihedral_coeff 314  0.0 -0.4 0.0 0.0
dihedral_coeff 315  0.0 0.0 0.0 0.0
dihedral_coeff 316  0.0 0.0 0.0 0.0
dihedral_coeff 317  0.0 0.0 0.4 0.0
dihedral_coeff 318  0.5 0.0 0.0 0.0
dihedral_coeff 319  0.346 0.405 -0.904 0.0
dihedral_coeff 320  0.0 0.0 -0.372 0.0
dihedral_coeff 321  0.0 0.0 -0.372 0.0
dihedral_coeff 322  0.0 0.0 -0.372 0.0
dihedral_coeff 323  1.711 -0.5 0.663 0.0
dihedral_coeff 324  0.0 0.0 0.3 0.0
dihedral_coeff 325  0.0 0.0 0.468 0.0
dihedral_coeff 326  1.438 -0.124 0.264 0.0
dihedral_coeff 327  0.0 0.0 0.347 0.0
dihedral_coeff 328  0.0 0.0 0.302 0.0
dihedral_coeff 329  0.0 0.0 0.261 0.0
dihedral_coeff 330  0.0 0.0 0.462 0.0
dihedral_coeff 331  0.0 0.0 0.3 0.0
dihedral_coeff 332  -0.19 -0.417 0.418 0.0
dihedral_coeff 333  1.829 0.243 -0.498 0.0
dihedral_coeff 334  -0.19 -0.417 0.418 0.0
dihedral_coeff 335  0.0 0.0 0.0 0.0
dihedral_coeff 336  0.0 0.0 0.0 0.0
dihedral_coeff 337  0.0 0.0 0.177 0.0
dihedral_coeff 338  0.0 0.0 0.0 0.0
dihedral_coeff 339  0.0 0.0 0.0 0.0
dihedral_coeff 340  1.0 -0.35 0.0 0.0
dihedral_coeff 341  2.756 -0.872 -3.68 0.0
dihedral_coeff 342  -1.0 -0.35 0.0 0.0
dihedral_coeff 343  1.5 -1.5 0.0 0.0
dihedral_coeff 344  -1.5 -1.5 0.0 0.0
dihedral_coeff 345  -1.5 -1.5 0.0 0.0
dihedral_coeff 346  0.0 0.0 0.0 0.0
dihedral_coeff 347  0.0 0.5 -0.5 0.0
dihedral_coeff 348  0.0 0.0 0.0 0.0
dihedral_coeff 349  0.0 0.0 0.0 0.0
dihedral_coeff 350  0.0 0.0 0.0 0.0
dihedral_coeff 351  0.0 0.0 0.25 0.0
dihedral_coeff 352  0.0 0.0 0.25 0.0
dihedral_coeff 353  2.25 0.0 0.0 0.0
dihedral_coeff 354  0.0 0.0 0.0 0.0
dihedral_coeff 355  0.0 0.0 0.0 0.0
dihedral_coeff 356  0.0 0.0 0.0 0.0
dihedral_coeff 357  0.0 0.0 0.0 0.0
dihedral_coeff 358  0.0 0.0 0.0 0.0
dihedral_coeff 359  0.0 0.0 0.35 0.0
dihedral_coeff 360  0.0 0.0 0.35 0.0
dihedral_coeff 361  0.0 0.0 0.35 0.0
dihedral_coeff 362  0.0 0.0 0.35 0.0
dihedral_coeff 363  0.0 0.0 0.0 0.0
dihedral_coeff 364  0.0 0.0 0.0 0.0
dihedral_coeff 365  -0.714 0.0 0.0 0.0
dihedral_coeff 366  0.0 0.0 0.0 0.0
dihedral_coeff 367  0.0 0.0 0.0 0.0
dihedral_coeff 368  0.0 0.0 -0.48 0.0
dihedral_coeff 369  0.0 0.0 0.0 0.0
dihedral_coeff 370  0.0 0.0 0.0 0.0
dihedral_coeff 371  0.0 0.0 0.0 0.0
dihedral_coeff 372  0.0 0.0 0.0 0.0
dihedral_coeff 373  0.0 0.45 0.0 0.0
dihedral_coeff 374  0.0 0.0 0.0 0.0
dihedral_coeff 375  1.7 -0.6 0.0 0.0
dihedral_coeff 376  0.0 -0.4 0.0 0.0
dihedral_coeff 377  0.0 0.0 0.0 0.0
dihedral_coeff 378  0.0 0.45 0.0 0.0
dihedral_coeff 379  0.0 0.0 0.0 0.0
dihedral_coeff 380  0.0 -0.4 0.0 0.0
dihedral_coeff 381  0.0 0.0 0.0 0.0
dihedral_coeff 382  0.0 0.0 0.0 0.0
dihedral_coeff 383  0.0 0.0 0.0 0.0
dihedral_coeff 384  0.0 0.0 0.0 0.0
dihedral_coeff 385  0.0 0.0 0.0 0.0
dihedral_coeff 386  0.0 0.0 0.3 0.0
dihedral_coeff 387  0.0 -1.0 0.0 0.0
dihedral_coeff 388  0.0 -1.0 0.0 0.0
dihedral_coeff 389  0.0 0.4 0.0 0.0
dihedral_coeff 390  0.0 0.0 0.0 0.0
dihedral_coeff 391  1.0 -0.5 0.5 0.0
dihedral_coeff 392  0.0 0.0 0.3 0.0
dihedral_coeff 393  0.0 0.0 0.0 0.0
dihedral_coeff 394  1.0 -0.35 0.0 0.0
dihedral_coeff 395  -1.0 -0.35 0.0 0.0
dihedral_coeff 396  -1.0 -0.35 0.0 0.0
dihedral_coeff 397  1.5 -1.5 0.0 0.0
dihedral_coeff 398  3.132 -1.491 2.744 0.0
dihedral_coeff 399  -1.5 -1.5 0.0 0.0
dihedral_coeff 400  -1.737 1.251 -3.501 0.0
dihedral_coeff 401  -1.396 -0.427 0.0 0.0
dihedral_coeff 402  4.753 -0.734 0.0 0.0
dihedral_coeff 403  0.0 0.0 -0.139 0.0
dihedral_coeff 404  0.0 0.0 0.0 0.0
dihedral_coeff 405  0.0 0.0 0.0 0.0
dihedral_coeff 406  1.0 0.0 0.0 0.0
dihedral_coeff 407  0.0 0.0 0.26 0.0
dihedral_coeff 408  0.0 0.0 0.18 0.0
dihedral_coeff 409  0.0 0.0 0.0 0.0
dihedral_coeff 410  0.0 0.0 0.18 0.0
dihedral_coeff 411  0.346 0.405 -0.904 0.0
dihedral_coeff 412  0.0 0.0 0.3 0.0
dihedral_coeff 413  0.0 0.0 0.318 0.0
dihedral_coeff 414  0.0 0.0 -0.372 0.0
dihedral_coeff 415  0.0 1.1 0.0 0.0
dihedral_coeff 416  0.0 1.1 0.0 0.0
dihedral_coeff 417  0.0 -7.414 1.705 0.0
dihedral_coeff 418  0.0 0.6 0.0 0.0
dihedral_coeff 419  1.6 5.1 0.0 0.0
dihedral_coeff 420  0.0 4.8 0.0 0.0
dihedral_coeff 421  0.0 7.25 0.0 0.0
dihedral_coeff 422  0.0 7.25 0.0 0.0
dihedral_coeff 423  0.0 7.25 0.0 0.0
dihedral_coeff 424  0.0 7.25 0.0 0.0
dihedral_coeff 425  0.0 7.25 0.0 0.0
dihedral_coeff 426  0.0 0.0 0.0 0.0
dihedral_coeff 427  0.0 0.0 0.0 0.0
dihedral_coeff 428  0.0 0.0 0.0 0.0
dihedral_coeff 429  0.0 0.0 0.0 0.0
dihedral_coeff 430  0.0 0.0 0.0 0.0
dihedral_coeff 431  0.0 0.0 0.0 0.0
dihedral_coeff 432  0.0 0.0 0.0 0.0
dihedral_coeff 433  0.0 0.0 0.0 0.0
dihedral_coeff 434  0.0 0.0 0.0 0.0
dihedral_coeff 435  0.0 0.0 0.0 0.0
dihedral_coeff 436  0.0 0.0 0.0 0.0
dihedral_coeff 437  0.0 0.0 0.0 0.0
dihedral_coeff 438  0.0 0.0 0.0 0.0
dihedral_coeff 439  0.0 0.0 0.0 0.0
dihedral_coeff 440  0.0 0.0 0.0 0.0
dihedral_coeff 441  0.0 0.0 0.3 0.0
dihedral_coeff 442  0.0 0.0 0.3 0.0
dihedral_coeff 443  0.65 -0.25 0.67 0.0
dihedral_coeff 444  0.0 0.0 0.76 0.0
dihedral_coeff 445  -3.5 3.0 0.0 0.0
dihedral_coeff 446  -3.5 3.0 0.0 0.0
dihedral_coeff 447  0.0 2.5 0.0 0.0
dihedral_coeff 448  0.0 3.0 0.0 0.0
dihedral_coeff 449  0.4 5.5 0.0 0.0
dihedral_coeff 450  0.0 2.99 0.0 0.0
dihedral_coeff 451  -0.375 -1.358 0.004 0.0
dihedral_coeff 452  0.65 -0.25 0.67 0.0
dihedral_coeff 453  -0.375 -1.358 0.004 0.0
dihedral_coeff 454  0.0 0.0 0.76 0.0
dihedral_coeff 455  3.0 3.0 0.0 0.0
dihedral_coeff 456  0.0 5.2 0.0 0.0
dihedral_coeff 457  0.0 0.0 0.562 0.0
dihedral_coeff 458  3.5 -3.3 1.5 0.0
dihedral_coeff 459  0.0 0.0 0.0 0.0
dihedral_coeff 460  0.0 0.0 0.0 0.0
dihedral_coeff 461  0.0 7.25 0.0 0.0
dihedral_coeff 462  0.0 7.25 0.0 0.0
dihedral_coeff 463  0.0 7.25 0.0 0.0
dihedral_coeff 464  0.0 7.25 0.0 0.0
dihedral_coeff 465  0.0 0.0 0.0 0.0
dihedral_coeff 466  0.0 0.0 0.0 0.0
dihedral_coeff 467  0.0 2.1 0.0 0.0
dihedral_coeff 468  0.0 2.1 0.0 0.0
dihedral_coeff 469  0.0 2.1 0.0 0.0
dihedral_coeff 470  0.0 2.1 0.0 0.0
dihedral_coeff 471  0.0 2.1 0.0 0.0
dihedral_coeff 472  0.0 2.1 0.0 0.0
dihedral_coeff 473  0.0 2.1 0.0 0.0
dihedral_coeff 474  0.0 7.25 0.0 0.0
dihedral_coeff 475  0.0 7.25 0.0 0.0
dihedral_coeff 476  0.0 7.25 0.0 0.0
dihedral_coeff 477  0.0 7.25 0.0 0.0
dihedral_coeff 478  0.0 0.0 0.0 0.0
dihedral_coeff 479  2.074 -2.966 2.473 0.0
dihedral_coeff 480  1.671 -4.901 0.669 0.0
dihedral_coeff 481  0.0 2.1 0.0 0.0
dihedral_coeff 482  0.0 2.1 0.0 0.0
dihedral_coeff 483  0.0 2.1 0.0 0.0
dihedral_coeff 484  0.0 2.1 0.0 0.0
dihedral_coeff 485  0.0 2.1 0.0 0.0
dihedral_coeff 486  0.0 2.1 0.0 0.0
dihedral_coeff 487  0.0 2.1 0.0 0.0
dihedral_coeff 488  0.0 2.17 0.0 0.0
dihedral_coeff 489  0.0 3.0 0.0 0.0
dihedral_coeff 490  0.0 2.1 0.0 0.0
dihedral_coeff 491  0.0 2.1 0.0 0.0
dihedral_coeff 492  0.0 2.1 0.0 0.0
dihedral_coeff 493  0.0 2.1 0.0 0.0
dihedral_coeff 494  0.0 2.17 0.0 0.0
dihedral_coeff 495  0.0 2.17 0.0 0.0
dihedral_coeff 496  0.0 7.25 0.0 0.0
dihedral_coeff 497  0.0 2.17 0.0 0.0
dihedral_coeff 498  0.0 2.17 0.0 0.0
dihedral_coeff 499  0.0 2.17 0.0 0.0
dihedral_coeff 500  0.0 2.17 0.0 0.0
dihedral_coeff 501  0.0 0.0 0.0 0.0
dihedral_coeff 502  -1.396 -0.427 0.0 0.0
dihedral_coeff 503  -1.396 -0.427 0.0 0.0
dihedral_coeff 504  0.0 0.0 0.0 0.0
dihedral_coeff 505  0.0 0.0 0.0 0.0
dihedral_coeff 506  0.0 0.0 0.0 0.0
dihedral_coeff 507  0.0 0.0 0.0 0.0
dihedral_coeff 508  0.0 0.0 0.3 0.0
dihedral_coeff 509  0.0 0.0 0.3 0.0
dihedral_coeff 510  0.0 0.0 0.3 0.0
dihedral_coeff 511  -7.582 3.431 3.198 0.0
dihedral_coeff 512  0.0 2.03 0.0 0.0
dihedral_coeff 513  0.0 2.1 0.0 0.0
dihedral_coeff 514  0.0 2.1 0.0 0.0
dihedral_coeff 515  0.0 2.1 0.0 0.0
dihedral_coeff 516  0.0 2.1 0.0 0.0
dihedral_coeff 517  0.0 2.1 0.0 0.0
dihedral_coeff 518  0.0 2.1 0.0 0.0
dihedral_coeff 519  0.0 2.1 0.0 0.0
dihedral_coeff 520  0.0 -8.0 0.0 0.0
dihedral_coeff 521  0.0 -8.0 0.0 0.0
dihedral_coeff 522  0.0 14.0 0.0 0.0
dihedral_coeff 523  0.0 14.0 0.0 0.0
dihedral_coeff 524  0.0 14.0 0.0 0.0
dihedral_coeff 525  0.0 14.0 0.0 0.0
dihedral_coeff 526  0.0 14.0 0.0 0.0
dihedral_coeff 527  0.0 14.0 0.0 0.0
dihedral_coeff 528  0.0 14.0 0.0 0.0
dihedral_coeff 529  0.0 14.0 0.0 0.0
dihedral_coeff 530  0.0 14.0 0.0 0.0
dihedral_coeff 531  0.0 14.0 0.0 0.0
dihedral_coeff 532  0.0 14.0 0.0 0.0
dihedral_coeff 533  0.0 14.0 0.0 0.0
dihedral_coeff 534  -1.6 14.0 0.0 0.0
dihedral_coeff 535  0.0 14.0 0.0 0.0
dihedral_coeff 536  0.0 14.0 0.0 0.0
dihedral_coeff 537  0.0 14.0 0.0 0.0
dihedral_coeff 538  0.205 -0.531 0.0 0.0
dihedral_coeff 539  0.0 0.0 -0.372 0.0
dihedral_coeff 540  0.0 0.0 -0.372 0.0
dihedral_coeff 541  1.241 3.353 -0.286 0.0
dihedral_coeff 542  0.0 14.0 0.0 0.0
dihedral_coeff 543  0.0 14.0 0.0 0.0
dihedral_coeff 544  0.0 14.0 0.0 0.0
dihedral_coeff 545  0.0 14.0 0.0 0.0
dihedral_coeff 546  0.0 14.0 0.0 0.0
dihedral_coeff 547  0.0 14.0 0.0 0.0
dihedral_coeff 548  0.0 14.0 0.0 0.0
dihedral_coeff 549  0.0 14.0 0.0 0.0
dihedral_coeff 550  0.0 14.0 0.0 0.0
dihedral_coeff 551  0.0 14.0 0.0 0.0
dihedral_coeff 552  0.0 14.0 0.0 0.0
dihedral_coeff 553  0.0 2.17 0.0 0.0
dihedral_coeff 554  0.0 2.17 0.0 0.0
dihedral_coeff 555  0.0 7.25 0.0 0.0
dihedral_coeff 556  0.0 7.25 0.0 0.0
dihedral_coeff 557  0.0 7.25 0.0 0.0
dihedral_coeff 558  0.0 2.17 0.0 0.0
dihedral_coeff 559  0.0 2.17 0.0 0.0
dihedral_coeff 560  0.0 0.0 0.0 0.0
dihedral_coeff 561  0.0 0.0 0.0 0.0
dihedral_coeff 562  0.0 7.25 0.0 0.0
dihedral_coeff 563  0.0 7.25 0.0 0.0
dihedral_coeff 564  0.0 7.25 0.0 0.0
dihedral_coeff 565  0.0 7.25 0.0 0.0
dihedral_coeff 566  0.0 7.25 0.0 0.0
dihedral_coeff 567  0.0 7.25 0.0 0.0
dihedral_coeff 568  0.0 7.25 0.0 0.0
dihedral_coeff 569  0.0 7.25 0.0 0.0
dihedral_coeff 570  0.0 7.25 0.0 0.0
dihedral_coeff 571  0.0 7.25 0.0 0.0
dihedral_coeff 572  0.0 7.25 0.0 0.0
dihedral_coeff 573  0.0 7.25 0.0 0.0
dihedral_coeff 574  0.0 7.25 0.0 0.0
dihedral_coeff 575  0.0 7.25 0.0 0.0
dihedral_coeff 576  0.0 7.25 0.0 0.0
dihedral_coeff 577  0.0 7.25 0.0 0.0
dihedral_coeff 578  0.0 7.25 0.0 0.0
dihedral_coeff 579  0.0 1.62 0.0 -0.44
dihedral_coeff 580  0.0 7.25 0.0 0.0
dihedral_coeff 581  0.0 7.25 0.0 0.0
dihedral_coeff 582  0.0 7.25 0.0 0.0
dihedral_coeff 583  0.0 7.25 0.0 0.0
dihedral_coeff 584  0.0 7.25 0.0 0.0
dihedral_coeff 585  0.0 7.25 0.0 0.0
dihedral_coeff 586  0.0 7.25 0.0 0.0
dihedral_coeff 587  0.0 7.25 0.0 0.0
dihedral_coeff 588  0.0 7.25 0.0 0.0
dihedral_coeff 589  0.0 7.25 0.0 0.0
dihedral_coeff 590  0.0 7.25 0.0 0.0
dihedral_coeff 591  0.0 7.25 0.0 0.0
dihedral_coeff 592  0.0 7.25 0.0 0.0
dihedral_coeff 593  0.0 0.0 -0.372 0.0
dihedral_coeff 594  1.241 3.353 -0.286 0.0
dihedral_coeff 595  0.0 0.0 -0.372 0.0
dihedral_coeff 596  1.241 3.353 -0.286 0.0
dihedral_coeff 597  0.0 0.0 0.0 0.0
dihedral_coeff 598  0.0 0.0 0.0 0.0
dihedral_coeff 599  0.0 2.03 0.0 0.0
dihedral_coeff 600  0.0 3.9 0.0 0.0
dihedral_coeff 601  0.0 7.936 0.0 0.0
dihedral_coeff 602  0.0 3.9 0.0 0.0
dihedral_coeff 603  0.0 2.03 0.0 0.0
dihedral_coeff 604  0.0 7.25 0.0 0.0
dihedral_coeff 605  0.0 7.25 0.0 0.0
dihedral_coeff 606  0.0 7.25 0.0 0.0
dihedral_coeff 607  0.0 7.0 0.0 0.0
dihedral_coeff 608  0.0 0.0 0.0 0.0
dihedral_coeff 609  0.0 -0.9 0.0 0.0
dihedral_coeff 610  1.656 -0.768 -0.117 0.0
dihedral_coeff 611  0.0 7.25 0.0 0.0
dihedral_coeff 612  0.0 7.25 0.0 0.0
dihedral_coeff 613  0.0 7.25 0.0 0.0
dihedral_coeff 614  0.0 7.25 0.0 0.0
dihedral_coeff 615  0.0 7.25 0.0 0.0
dihedral_coeff 616  0.0 7.25 0.0 0.0
dihedral_coeff 617  0.0 7.25 0.0 0.0
dihedral_coeff 618  0.0 7.25 0.0 0.0
dihedral_coeff 619  0.0 7.25 0.0 0.0
dihedral_coeff 620  0.0 3.651 0.0 0.0
dihedral_coeff 621  0.0 1.15 0.0 0.0
dihedral_coeff 622  0.205 -0.531 0.0 0.0
dihedral_coeff 623  0.0 0.0 -0.372 0.0
dihedral_coeff 624  1.241 3.353 -0.286 0.0
dihedral_coeff 625  0.0 7.25 0.0 0.0
dihedral_coeff 626  0.0 7.25 0.0 0.0
dihedral_coeff 627  0.0 0.0 0.3 0.0
dihedral_coeff 628  0.0 0.0 0.3 0.0
dihedral_coeff 629  0.0 0.0 -0.372 0.0
dihedral_coeff 630  0.0 0.0 0.3 0.0
dihedral_coeff 631  0.0 0.0 -0.372 0.0
dihedral_coeff 632  1.423 4.055 0.858 0.0
dihedral_coeff 633  0.0 0.0 0.3 0.0
dihedral_coeff 634  0.0 0.0 -0.372 0.0
dihedral_coeff 635  0.0 0.0 0.3 0.0
dihedral_coeff 636  0.0 0.0 0.3 0.0
dihedral_coeff 637  0.0 0.0 -0.372 0.0
dihedral_coeff 638  0.0 0.0 -0.372 0.0
dihedral_coeff 639  0.0 0.0 -0.372 0.0
dihedral_coeff 640  1.423 4.055 0.858 0.0
dihedral_coeff 641  0.0 2.1 0.0 0.0
dihedral_coeff 642  0.0 2.1 0.0 0.0
dihedral_coeff 643  0.0 2.03 0.0 0.0
dihedral_coeff 644  0.0 7.25 0.0 0.0
dihedral_coeff 645  0.0 7.25 0.0 0.0
dihedral_coeff 646  0.0 7.25 0.0 0.0
dihedral_coeff 647  0.0 7.25 0.0 0.0
dihedral_coeff 648  0.0 7.25 0.0 0.0
dihedral_coeff 649  0.0 7.25 0.0 0.0
dihedral_coeff 650  0.0 10.0 0.0 0.0
dihedral_coeff 651  0.0 7.25 0.0 0.0
dihedral_coeff 652  0.0 7.25 0.0 0.0
dihedral_coeff 653  0.0 7.25 0.0 0.0
dihedral_coeff 654  0.0 7.25 0.0 0.0
dihedral_coeff 655  0.0 5.0 0.0 0.0
dihedral_coeff 656  0.0 10.0 0.0 0.0
dihedral_coeff 657  0.0 10.0 0.0 0.0
dihedral_coeff 658  0.0 3.05 0.0 0.0
dihedral_coeff 659  0.0 4.65 0.0 0.0
dihedral_coeff 660  0.0 10.0 0.0 0.0
dihedral_coeff 661  0.0 5.0 0.0 0.0
dihedral_coeff 662  0.0 2.8 0.0 0.0
dihedral_coeff 663  0.0 5.0 0.0 0.0
dihedral_coeff 664  0.0 2.17 0.0 0.0
dihedral_coeff 665  0.0 2.17 0.0 0.0
dihedral_coeff 666  0.0 7.25 0.0 0.0
dihedral_coeff 667  0.0 7.25 0.0 0.0
dihedral_coeff 668  0.0 3.35 0.0 0.0
dihedral_coeff 669  0.0 6.0 0.0 0.0
dihedral_coeff 670  0.0 7.25 0.0 0.0
dihedral_coeff 671  0.0 7.25 0.0 0.0
dihedral_coeff 672  0.0 7.25 0.0 0.0
dihedral_coeff 673  0.0 10.0 0.0 0.0
dihedral_coeff 674  0.0 10.0 0.0 0.0
dihedral_coeff 675  0.0 7.25 0.0 0.0
dihedral_coeff 676  0.0 10.0 0.0 0.0
dihedral_coeff 677  0.0 7.25 0.0 0.0
dihedral_coeff 678  0.0 7.25 0.0 0.0
dihedral_coeff 679  0.0 7.25 0.0 0.0
dihedral_coeff 680  0.0 4.8 0.0 0.0
dihedral_coeff 681  0.0 7.25 0.0 0.0
dihedral_coeff 682  0.0 7.25 0.0 0.0
dihedral_coeff 683  0.0 10.0 0.0 0.0
dihedral_coeff 684  0.0 7.25 0.0 0.0
dihedral_coeff 685  0.0 7.25 0.0 0.0
dihedral_coeff 686  0.0 13.05 0.0 0.0
dihedral_coeff 687  0.0 2.17 0.0 0.0
dihedral_coeff 688  0.0 2.17 0.0 0.0
dihedral_coeff 689  0.0 2.17 0.0 0.0
dihedral_coeff 690  0.0 2.17 0.0 0.0
dihedral_coeff 691  0.0 2.17 0.0 0.0
dihedral_coeff 692  0.0 7.25 0.0 0.0
dihedral_coeff 693  0.0 10.75 0.0 0.0
dihedral_coeff 694  0.0 10.75 0.0 0.0
dihedral_coeff 695  0.0 10.75 0.0 0.0
dihedral_coeff 696  0.0 10.75 0.0 0.0
dihedral_coeff 697  0.0 10.75 0.0 0.0
dihedral_coeff 698  0.0 7.25 0.0 0.0
dihedral_coeff 699  0.0 7.25 0.0 0.0
dihedral_coeff 700  0.0 7.25 0.0 0.0
dihedral_coeff 701  0.0 2.17 0.0 0.0
dihedral_coeff 702  0.0 2.17 0.0 0.0
dihedral_coeff 703  0.0 2.17 0.0 0.0
dihedral_coeff 704  0.0 2.17 0.0 0.0
dihedral_coeff 705  0.0 10.75 0.0 0.0
dihedral_coeff 706  0.0 10.75 0.0 0.0
dihedral_coeff 707  0.0 10.75 0.0 0.0
dihedral_coeff 708  0.0 10.75 0.0 0.0
dihedral_coeff 709  0.0 2.17 0.0 0.0
dihedral_coeff 710  0.0 2.17 0.0 0.0
dihedral_coeff 711  0.0 2.17 0.0 0.0
dihedral_coeff 712  0.0 2.17 0.0 0.0
dihedral_coeff 713  0.0 7.25 0.0 0.0
dihedral_coeff 714  0.0 7.25 0.0 0.0
dihedral_coeff 715  0.0 7.25 0.0 0.0
dihedral_coeff 716  0.0 7.25 0.0 0.0
dihedral_coeff 717  0.0 10.75 0.0 0.0
dihedral_coeff 718  0.0 7.25 0.0 0.0
dihedral_coeff 719  0.0 7.25 0.0 0.0
dihedral_coeff 720  0.0 7.25 0.0 0.0
dihedral_coeff 721  0.0 7.25 0.0 0.0
dihedral_coeff 722  0.0 2.17 0.0 0.0
dihedral_coeff 723  0.0 2.17 0.0 0.0
dihedral_coeff 724  0.0 2.17 0.0 0.0
dihedral_coeff 725  0.0 2.17 0.0 0.0
dihedral_coeff 726  0.0 2.17 0.0 0.0
dihedral_coeff 727  0.0 2.17 0.0 0.0
dihedral_coeff 728  0.0 2.17 0.0 0.0
dihedral_coeff 729  0.0 2.17 0.0 0.0
dihedral_coeff 730  0.0 2.17 0.0 0.0
dihedral_coeff 731  0.0 7.25 0.0 0.0
dihedral_coeff 732  0.0 6.089 0.0 0.0
dihedral_coeff 733  0.0 4.9 0.0 0.0
dihedral_coeff 734  0.0 6.089 0.0 0.0
dihedral_coeff 735  0.0 20.0 0.0 0.0
dihedral_coeff 736  2.3 6.089 0.0 0.0
dihedral_coeff 737  0.0 4.9 0.0 0.0
dihedral_coeff 738  2.3 6.089 0.0 0.0
dihedral_coeff 739  2.3 6.089 0.0 0.0
dihedral_coeff 740  0.0 0.0 0.0 0.0
dihedral_coeff 741  0.0 0.0 0.0 0.0
dihedral_coeff 742  0.0 0.0 0.0 0.0
dihedral_coeff 743  0.0 0.0 0.0 0.0
dihedral_coeff 744  0.0 0.0 0.0 0.0
dihedral_coeff 745  0.0 0.0 0.0 0.0
dihedral_coeff 746  0.0 0.0 0.0 0.0
dihedral_coeff 747  0.0 0.0 0.0 0.0
dihedral_coeff 748  0.0 0.0 0.0 0.0
dihedral_coeff 749  0.0 0.0 0.0 0.0
dihedral_coeff 750  0.0 0.0 0.0 0.0
dihedral_coeff 751  0.0 0.0 0.0 0.0
dihedral_coeff 752  0.0 0.0 0.0 0.0
dihedral_coeff 753  0.0 0.0 0.0 0.0
dihedral_coeff 754  0.0 0.0 0.0 0.0
dihedral_coeff 755  0.0 14.0 0.0 0.0
dihedral_coeff 756  0.0 14.0 0.0 0.0
dihedral_coeff 757  0.0 14.0 0.0 0.0
dihedral_coeff 758  0.0 14.0 0.0 0.0
dihedral_coeff 759  0.0 14.0 0.0 0.0
dihedral_coeff 760  0.0 14.0 0.0 0.0
dihedral_coeff 761  0.0 14.0 0.0 0.0
dihedral_coeff 762  0.0 14.0 0.0 0.0
dihedral_coeff 763  0.0 14.0 0.0 0.0
dihedral_coeff 764  0.0 14.0 0.0 0.0
dihedral_coeff 765  0.0 14.0 0.0 0.0
dihedral_coeff 766  0.0 14.0 0.0 0.0
dihedral_coeff 767  0.0 14.0 0.0 0.0
dihedral_coeff 768  0.0 14.0 0.0 0.0
dihedral_coeff 769  0.0 14.0 0.0 0.0
dihedral_coeff 770  1.423 4.055 0.858 0.0
dihedral_coeff 771  1.816 1.222 1.581 0.0
dihedral_coeff 772  0.0 0.82 0.0 0.0
dihedral_coeff 773  1.0 0.0 0.0 0.0
dihedral_coeff 774  -1.697 -0.456 0.585 0.0
dihedral_coeff 775  -1.697 -0.456 0.585 0.0
dihedral_coeff 776  -1.697 -0.456 0.585 0.0
dihedral_coeff 777  6.28 -1.467 2.03 0.0
dihedral_coeff 778  1.428 0.086 0.029 0.0
dihedral_coeff 779  1.428 0.086 0.029 0.0
dihedral_coeff 780  2.732 -0.229 0.485 0.0
dihedral_coeff 781  0.845 -0.962 0.713 0.0
dihedral_coeff 782  1.0 0.0 0.0 0.0
dihedral_coeff 783  0.845 -0.962 0.713 0.0
dihedral_coeff 784  1.0 0.0 0.0 0.0
dihedral_coeff 785  0.845 -0.962 0.713 0.0
dihedral_coeff 786  0.0 0.0 0.462 0.0
dihedral_coeff 787  1.0 0.0 0.0 0.0
dihedral_coeff 788  1.438 -0.124 0.264 0.0
dihedral_coeff 789  0.0 0.0 0.347 0.0
dihedral_coeff 790  0.0 0.0 0.347 0.0
dihedral_coeff 791  0.0 0.0 0.0 0.0
dihedral_coeff 792  0.0 0.0 0.0 0.0
dihedral_coeff 793  1.7 -0.6 0.0 0.0
dihedral_coeff 794  0.0 0.0 0.0 0.0
dihedral_coeff 795  0.0 3.9 0.0 0.0
dihedral_coeff 796  0.0 7.25 0.0 0.0
dihedral_coeff 797  0.0 5.0 0.0 0.0
dihedral_coeff 798  0.0 10.75 0.0 0.0
dihedral_coeff 799  1.3 -0.05 0.2 0.0
dihedral_coeff 800  1.3 -0.05 0.2 0.0
dihedral_coeff 801  11.446 -15.186 -3.212 0.00 # LiFSI S-N-S-F JBCB 2010 114 3592â€“3600
dihedral_coeff 802  0 0 -0.015 0.00 # LiFSI S-N-S-O JBCB 2010 114 3592â€“3600
dihedral_coeff 803 1 1 1 0.00 # LiDFOB C-C-O-B
dihedral_coeff 804 1 1 1 0.00 # LiDFOB C-O-C-B
dihedral_coeff 805 1 1 1 0.00 # LiDFOB F-B-O-C
dihedral_coeff 806 1 1 1 0.00 # LiDFOB F-O-B-C
dihedral_coeff 807 1 1 1 0.00 # LiDFOB O-B-O-C
dihedral_coeff 808 1 1 1 0.00 # LiDFOB O-C-C-B
dihedral_coeff 809 1 1 1 0.00 # LiDFOB O-C-O-B
dihedral_coeff 810 1 1 1 0.00 # LiDFOB O-O-B-C
dihedral_coeff 811 1 1 1 0.00 # LiDFOB O-O-C-B
# The following force field parameters were converted from
# the tinker parameter file (oplsaa.prm) and then edited by hand:
# Thanks to David Huang (adelaide.edu.au) for the corrections:

improper_coeff 1  10.5 180.0  # (moltemplate)
# <==> "imptors 0 0 3 4  21.000 180.0 2" in oplsaa.prm (tinker)
# <==> "define improper_O_C_X_Y 180.0 43.93200 2" in oplsaa.ff (gromacs)

improper_coeff 2  10.5 180.0  # (moltemplate)
# <==> "imptors 0 0 3 52  21.000 180.0 2" in oplsaa.prm (tinker)
# <==> "define improper_O_C_X_Y 180.0 43.93200 2" in oplsaa.ff (gromacs)

improper_coeff 3  1.0 180.0  # (moltemplate)
# <==> "imptors 0 0 24 0  5.000 180.0 2" in oplsaa.prm (tinker) - INCORRECT?
# <==> "define improper_Z_N_X_Y 180.0 4.18400 2" in oplsaa.ff (gromacs)

improper_coeff 4  15.0 180.0  # (moltemplate)
# <==> "imptors 0 0 47 0  30.000 180.0 2" in oplsaa.prm (tinker)
# <==> "define improper_Z_CM_X_Y 180.0 62.76000 2" in oplsaa.ff (gromacs)

improper_coeff 5  1.1 180.0  # (moltemplate)
# <==> "imptors 0 0 48 0  5.000 180.0 2" in oplsaa.prm (tinker) - INCORRECT?
# <==> "define improper_Z_CA_X_Y 180.0 4.60240 2" in oplsaa.ff (gromacs)

improper_coeff 6  10.5 180.0
# <==> "define improper_N2_X_N2_N2 180.0 43.93200" in oplsaa.ff (gromacs)
# <==> no corresponding line found in oplsaa.prm (tinker)

# --- As of 2017-9-13, I am unsure if I should add this rule: ----
# The gromacs file for oplsaa include the following line:
# "define improper_X_NO_ON_NO 180.0 43.93200" in oplsaa.ff (gromacs)
# but there is no corresponding line found in oplsaa.prm (tinker)
# and there is no corresponding line from opls-a.prm (emc (BASF))
# I'm not sure what the "NO" and "ON" correspond to.  If I had to guess,
# the corresponding moltemplate line might be one of these two choices:
# improper_coeff @improper:X_103_102_102  10.5 180.0  ?
# improper_coeff @improper:X_102_103_103  10.5 180.0  ?
# but I'd prefer to leave this out.

# Create LiPF6 molecules
molecule lipf6 ../../../LiPF6/molecule.txt
Read molecule template lipf6:
# LiPF6 molecule
  1 molecules
  0 fragments
  8 atoms with max type 727
  6 bonds with max type 380
  15 angles with max type 1019
  0 dihedrals with max type 0
  0 impropers with max type 0
create_atoms 0 random 34 22222 NULL mol lipf6 55555 overlap 1 maxtry 50
Created 272 atoms
  using lattice units in orthogonal box = (-100 -100 -100) to (100 100 100)
  create_atoms CPU = 0.001 seconds

#Create LiFSI molecules
molecule lifsi ../../../LiFSI/molecule.txt
Read molecule template lifsi:
# LiFSI molecule
  1 molecules
  0 fragments
  10 atoms with max type 907
  8 bonds with max type 383
  13 angles with max type 1024
  6 dihedrals with max type 802
  0 impropers with max type 0
create_atoms 0 random 25 12345 NULL mol lifsi 13245 overlap 1 maxtry 50
Created 250 atoms
  using lattice units in orthogonal box = (-100 -100 -100) to (100 100 100)
  create_atoms CPU = 0.001 seconds

# Create LiDFOB molecules
molecule lidfob ../../../LiDFOB/molecule.txt
Read molecule template lidfob:
# LiDFOB molecule
  1 molecules
  0 fragments
  10 atoms with max type 909
  9 bonds with max type 388
  14 angles with max type 1030
  14 dihedrals with max type 811
  0 impropers with max type 0
create_atoms 0 random 4 21345 NULL mol lidfob 12354 overlap 1 maxtry 50
Created 40 atoms
  using lattice units in orthogonal box = (-100 -100 -100) to (100 100 100)
  create_atoms CPU = 0.000 seconds

minimize 1.0e-4 1.0e-6 1000 100
PPPM initialization ...
WARNING: System is not charge neutral, net charge = -115.63 (src/kspace.cpp:327)
  using 12-bit tables for long-range coulomb (src/kspace.cpp:342)
  G vector (1/distance) = 0.10121455
  grid = 18 18 18
  stencil order = 5
  estimated absolute RMS force accuracy = 0.32454984
  estimated relative force accuracy = 0.0009773722
  using double precision FFTW3
  3d grid and FFT values/proc = 1960 648
Generated 412686 of 412686 mixed pair_coeff terms from geometric mixing rule
Neighbor list info ...
  update: every = 1 steps, delay = 0 steps, check = yes
  max neighbors/atom: 2000, page size: 100000
  master list distance cutoff = 13
  ghost atom cutoff = 13
  binsize = 6.5, bins = 31 31 31
  1 neighbor lists, perpetual/occasional/extra = 1 0 0
  (1) pair lj/cut/coul/long, perpetual
      attributes: half, newton on
      pair build: half/bin/newton
      stencil: half/bin/3d
      bin: standard
Per MPI rank memory allocation (min/avg/max) = 22.97 | 22.99 | 23.02 Mbytes
   Step          Temp          E_pair         E_mol          TotEng         Press     
         0   288.20445      373690.82      47228.684      432834.98      13353.448    
        71   288.20445     -13228.615      12201.289      10888.151      67.614685    
Loop time of 0.161074 on 16 procs for 71 steps with 13871 atoms

100.0% CPU use with 16 MPI tasks x 1 OpenMP threads

Minimization stats:
  Stopping criterion = max force evaluations
  Energy initial, next-to-last, final = 
      420919.499618045   -995.45023961538  -1027.32600519943
  Force two-norm initial, final = 1121114.3 391.66796
  Force max component initial, final = 135929.08 77.845702
  Final line search alpha, max atom move = 0.00048514639 0.037766561
  Iterations, force evaluations = 71 100

MPI task timing breakdown:
Section |  min time  |  avg time  |  max time  |%varavg| %total
---------------------------------------------------------------
Pair    | 0.022706   | 0.029161   | 0.039924   |   2.6 | 18.10
Bond    | 0.038051   | 0.045565   | 0.057915   |   2.6 | 28.29
Kspace  | 0.049569   | 0.072778   | 0.086662   |   3.7 | 45.18
Neigh   | 0.001408   | 0.0014125  | 0.001417   |   0.0 |  0.88
Comm    | 0.007299   | 0.0077063  | 0.008164   |   0.3 |  4.78
Output  | 0          | 0          | 0          |   0.0 |  0.00
Modify  | 0          | 0          | 0          |   0.0 |  0.00
Other   |            | 0.00445    |            |       |  2.76

Nlocal:        866.938 ave         989 max         684 min
Histogram: 1 1 0 2 0 2 5 2 1 2
Nghost:        1266.44 ave        1381 max        1134 min
Histogram: 2 0 0 2 3 1 2 3 2 1
Neighs:        12112.7 ave       16057 max        8320 min
Histogram: 1 1 1 3 3 2 2 1 0 2

Total # of neighbors = 193803
Ave neighs/atom = 13.971812
Ave special neighs/atom = 7.7817028
Neighbor list builds = 2
Dangerous builds = 0

fix mynpt all npt temp 300 300 100 x 1 1 1000
timestep 0.1

## Dump traj
# dump myent all custom 100 dump.entropy c_my_entropy
dump mydmp all custom 1000 dump.lammpstrj x y z type id


## print
thermo 500
thermo_style custom step etotal enthalpy evdwl ecoul elong ebond eangle edihed eimp ke pe temp press vol density cpu


run 30000
PPPM initialization ...
  using 12-bit tables for long-range coulomb (src/kspace.cpp:342)
  G vector (1/distance) = 0.10121455
  grid = 18 18 18
  stencil order = 5
  estimated absolute RMS force accuracy = 0.32454984
  estimated relative force accuracy = 0.0009773722
  using double precision FFTW3
  3d grid and FFT values/proc = 1960 648
Generated 412686 of 412686 mixed pair_coeff terms from geometric mixing rule
Per MPI rank memory allocation (min/avg/max) = 21.85 | 21.87 | 21.89 Mbytes
   Step         TotEng        Enthalpy        E_vdwl         E_coul         E_long         E_bond        E_angle        E_dihed        E_impro         KinEng         PotEng          Temp          Press          Volume        Density          CPU      
        71   10888.151      18776.878      967.95909      6174.6495     -20371.223      138.57345      11865.32       167.06975      30.325994      11915.477     -1027.326       288.20445      67.614685      8000000        0.021629725    0            
       500   11081.669      13917.196      970.35257      6172.8132     -20404.507      727.24534      13165.23       428.78433      139.77045      9881.9804      1199.6891      239.01944      24.29538       8002655.3      0.021622548    0.709619     
      1000   11430.247      16881.802      1045.8569      6023.057      -20465.009      610.65403      12909.481      349.16853      60.935381      10896.104      534.14313      263.54845      46.669249      8009653.5      0.021603656    1.507197     
      1500   11797.952      11621.278      877.31502      5969.4128     -20530.145      648.78423      12979.422      346.86917      81.803238      11424.49       373.46146      276.32875     -1.5102093      8021557.7      0.021571596    2.344927     
      2000   12140.81       15213.19       1021.3478      5917.0064     -20594.592      692.69994      12839.494      388.02115      126.14235      11750.69       390.11923      284.21868      26.212342      8036987.6      0.021530181    3.153163     
      2500   12509.057      15354.77       991.6944       5837.1844     -20640.436      800.69827      12946.603      418.7464       81.973987      12072.593      436.4642       292.00467      24.217342      8057285.2      0.021475943    4.010928     
      3000   12772.84       13825.903      1036.5669      5781.0409     -20699.151      791.16666      12845.898      403.74013      89.725787      12523.853      248.98698      302.91948      8.9377249      8078888.3      0.021418516    4.817453     
      3500   12974.584      15208.981      1037.8888      5768.4222     -20771.235      763.95873      13040.919      391.13626      124.53063      12618.964      355.62056      305.21996      18.912475      8100951.5      0.021360182    5.623918     
      4000   12952.026      15835.087      1002.1328      5723.5797     -20843.4        709.56994      13018.918      335.9233       89.120991      12916.181      35.844498      312.40888      24.34216       8121175.1      0.02130699     6.449058     
      4500   12799.031      14114.278      971.7146       5734.2403     -20908.79       773.283        13082.482      395.89791      102.1729       12648.03       151.00061      305.923        11.079093      8140054.6      0.021257572    7.249801     
      5000   12536.086      15088.742      1078.2869      5684.0138     -20953.449      743.26466      13085.253      368.63709      102.71403      12427.366      108.72015      300.5857       21.452935      8158864.5      0.021208564    8.061047     
      5500   12308.267      14225.637      957.90127      5706.2796     -21000.773      729.74707      12987.096      366.73164      87.767406      12473.517     -165.24961      301.70197      16.074678      8178767.4      0.021156953    8.884849     
      6000   12124.065      14694.093      1044.2381      5554.1633     -21055.027      692.12537      12979.236      383.13403      105.55731      12420.638     -296.57282      300.42296      21.49366       8198824        0.021105197    9.690781     
      6500   11975.411      10373.57       1016.5032      5403.1565     -21112.098      759.4975       13150.773      398.35182      107.50665      12251.72      -276.30894      296.33729     -13.362025      8219988.4      0.021050857    10.493514    
      7000   11932.765      14171.986      1002.6034      5497.8523     -21152.757      702.59185      13062.511      336.73483      94.319503      12388.909     -456.14352      299.65553      18.631447      8240896.3      0.020997449    11.29469     
      7500   11940.364      13344.888      978.13018      5591.0617     -21173.089      736.26049      12983.601      451.0639       113.44741      12259.889     -319.52435      296.53486      11.657299      8261431.6      0.020945256    12.099298    
      8000   11982.308      12743.8        1045.5021      5494.2908     -21215.226      696.18686      12964.58       483.66184      105.5664       12407.746     -425.43742      300.11115      6.3052465      8281087.2      0.020895541    12.892862    
      8500   12009.391      13788.221      972.52488      5390.4303     -21264.493      751.07531      13051.394      495.22645      86.326618      12526.907     -517.51596      302.99334      14.693596      8301002.5      0.02084541     13.684199    
      9000   11998.477      15526.16       1088.3196      5307.5245     -21287.298      739.31034      12983.023      458.20032      107.57529      12601.822     -603.34541      304.80536      29.075044      8319424.9      0.02079925     14.477781    
      9500   11945.421      11441.559      984.56876      5348.5974     -21306.514      814.70422      13116.357      452.40655      106.64995      12428.651     -483.23005      300.61678     -4.1441714      8336768.9      0.020755979    15.273165    
     10000   11824.02       15867.205      1126.4949      5096.687      -21340.54       780.0505       13106.482      403.30447      98.729933      12552.811     -728.79154      303.61991      33.1912        8352658.9      0.020716493    16.087217    
     10500   11641.04       12672.125      974.83711      5094.9406     -21388.571      827.37957      13163.283      423.7838       104.63012      12440.757     -799.71702      300.90959      8.4470723      8369749.3      0.020674191    16.884689    
     11000   11478.911      12662.384      1056.1273      5040.4513     -21422.269      752.10472      13084.303      448.9349       99.187852      12420.071     -941.16017      300.40926      9.6772466      8385533.7      0.020635276    17.68162     
     11500   11366.747      13467.693      1015.6167      5107.151      -21458.171      812.3519       13062.013      385.82296      99.751746      12342.211     -975.46366      298.52602      17.147145      8401313.9      0.020596516    18.479463    
     12000   11257.776      14199.512      1100.341       4879.0803     -21501.41       803.63108      13054.625      416.75397      100.03095      12404.723     -1146.947       300.03803      23.966119      8416472.4      0.020559421    19.280801    
     12500   11196.492      12183.001      1079.0201      4774.8658     -21545.544      878.73547      13105.67       438.31909      86.448663      12378.977     -1182.4852      299.4153       8.0213152      8432951.4      0.020519245    20.103322    
     13000   11130.487      13435.728      1119.0648      4743.8299     -21579.93       818.08869      13118.788      352.21217      93.530971      12464.902     -1334.4151      301.4936       18.708444      8448949.9      0.020480391    20.918316    
     13500   11052.151      12990.641      1060.087       4737.0025     -21588.43       870.77042      13121.294      392.39276      106.11681      12352.917     -1300.7663      298.78499      15.701795      8465223.1      0.020441021    21.728652    
     14000   10980.891      13603.334      1077.1909      4702.4324     -21604.981      852.67565      13107.872      402.05029      96.688951      12346.962     -1366.0702      298.64094      21.205397      8479762.2      0.020405973    22.601488    
     14500   10944.173      12802.995      1126.1979      4594.2903     -21623.182      839.49358      13085.663      430.25191      105.63767      12385.821     -1441.6485      299.58085      15.005245      8494127.2      0.020371463    23.415503    
     15000   10925.281      14368.316      1135.5307      4553.6178     -21644.399      841.10009      13140.459      459.2706       104.2321       12335.471     -1410.1894      298.363        27.743726      8509435.7      0.020334815    24.237993    
     15500   10946.011      13556.74       1029.0012      4571.0009     -21659.841      831.00936      13233.868      428.01975      90.722024      12422.231     -1476.2205      300.46152      20.997588      8525434.8      0.020296654    25.044163    
     16000   10943.259      12988.696      1185.5453      4346.802      -21685.668      850.22578      13200.416      428.24437      98.2545        12519.439     -1576.1799      302.81271      16.422749      8540127.4      0.020261735    25.852083    
     16500   10825.303      13101.764      1122.6862      4349.1731     -21722.402      889.80628      13211.443      389.29427      107.43031      12477.872     -1652.5684      301.80731      18.244478      8555646.2      0.020224983    26.661925    
     17000   10713.666      14307.982      1120.4837      4389.0694     -21759.371      852.09977      13176.303      419.13377      101.43801      12414.509     -1700.8425      300.27472      28.757537      8570155.7      0.020190742    27.468234    
     17500   10556.613      11572.127      1120.1416      4207.1141     -21798.912      917.29704      13260.415      432.20872      96.715046      12321.634     -1765.0211      298.02832      8.1105316      8585403.6      0.020154882    28.276871    
     18000   10466.59       13196.925      1119.0583      4257.0136     -21825.196      907.19444      13151.353      431.2351       98.476059      12327.456     -1860.8655      298.16914      21.767987      8600459.7      0.020119599    29.084037    
     18500   10396.846      11842.204      1103.6232      4236.9251     -21849.018      911.8346       13121.702      404.77147      100.18565      12366.823     -1969.9762      299.12132      11.501154      8617037.5      0.020080892    29.903759    
     19000   10376.888      12406.733      1067.1294      4330.4983     -21870.325      839.99829      13136.654      454.91146      100.68445      12317.336     -1940.4489      297.92438      16.124023      8632044.5      0.020045981    30.718015    
     19500   10385.676      13534.802      1070.4295      4167.7329     -21900.441      881.84385      13208.487      458.57191      104.80812      12394.244     -2008.5682      299.78457      24.968488      8648124.6      0.020008708    31.535967    
     20000   10385.987      13586.186      1101.5708      4005.1655     -21927.295      911.59724      13321.539      412.2572       95.128191      12466.023     -2080.0364      301.52073      25.328471      8663474.4      0.019973257    32.366776    
     20500   10345.898      11915.883      1116.8964      3951.386      -21944.588      924.89301      13258.299      427.70406      99.82682       12511.48      -2165.582       302.6202       12.403138      8679369.6      0.019936678    33.212179    
     21000   10258.217      11886.105      1094.3555      4021.1487     -21962.204      932.0761       13250.053      443.72326      101.94861      12377.116     -2118.899       299.37029      12.838391      8694367.9      0.019902286    34.038054    
     21500   10189.913      11290.908      1123.4745      3965.9548     -21991.617      943.66438      13195.316      465.15534      97.379369      12390.585     -2200.6722      299.69607      8.6683226      8709120.1      0.019868574    34.864339    
     22000   10105.904      12367.182      1057.9453      3872.2971     -22015.507      997.82228      13270.271      457.28466      114.28038      12351.51      -2245.606       298.75094      17.774167      8723460.9      0.019835912    35.683831    
     22500   10018.662      11067.486      1026.5036      3931.1433     -22018.923      982.75055      13202.221      394.43341      108.82083      12391.711     -2373.0495      299.72331      8.2301833      8738102        0.019802676    36.500237    
     23000   9957.877       13060.633      1194.8458      3875.765      -22019.019      922.05442      13163.684      462.16576      109.71751      12248.664     -2290.7872      296.26337      24.307014      8752662.4      0.019769733    37.319896    
     23500   9927.7191      10575.618      1128.4076      3751.4602     -22025.948      991.64425      13239.913      485.68448      98.568483      12257.989     -2330.2704      296.48893      5.0663698      8768688.1      0.019733602    38.143684    
     24000   9951.5592      11032.817      1143.6882      3770.23       -22037.22       926.33802      13247.396      475.25419      98.545319      12327.328     -2375.7687      298.16605      8.441036       8783300        0.019700773    38.972998    
     24500   9981.1026      10920.921      1083.8772      3845.9515     -22040.628      967.80926      13226.186      459.67313      93.755213      12344.479     -2363.3761      298.58088      7.3250688      8797444.7      0.019669098    39.795203    
     25000   10030.865      12752.841      1060.9486      3775.0283     -22043.97       944.22049      13252.727      499.92609      112.07086      12429.914     -2399.0487      300.64733      21.183045      8810896.6      0.019639068    40.613958    
     25500   10122.398      9316.6469      1022.0423      3808.4298     -22052.422      950.62985      13269.571      469.11945      107.03794      12547.99      -2425.5921      303.50328     -6.2612079      8824024.5      0.01960985     41.431662    
     26000   10135.239      12116.181      1137.2623      3642.3208     -22060.32       962.30633      13264.668      495.69605      109.62598      12583.68      -2448.4408      304.36652      15.372701      8835798.1      0.01958372     42.249941    
     26500   10050.878      12186.574      1172.4411      3417.6039     -22063.848      1040.776       13417.809      464.08949      114.79185      12487.215     -2436.3366      302.03329      16.551425      8847655.4      0.019557475    43.100107    
     27000   9929.4079      12626.783      1225.3248      3381.4861     -22070.622      991.69948      13341.18       481.70313      98.942028      12479.695     -2550.2868      301.8514       20.872831      8861026.9      0.019527962    43.928524    
     27500   9859.2591      10670.19       1135.8823      3432.4992     -22066.94       1069.6278      13303.451      469.32138      109.3094       12406.107     -2546.8483      300.07152      6.2641951      8876519.1      0.01949388     44.751245    
     28000   9813.9648      12531.515      1138.3403      3497.2067     -22065.255      973.83585      13289.194      453.66498      119.18816      12407.789     -2593.8247      300.1122       20.960083      8890142.6      0.019464007    45.587029    
     28500   9753.9778      11015.904      1098.6659      3476.2287     -22072.381      1046.5198      13262.414      482.24594      107.67423      12352.611     -2598.6329      298.77757      9.719066       8902944.4      0.019436019    46.415274    
     29000   9752.3592      12164.399      1207.762       3226.4116     -22080.548      998.73656      13376.741      512.77397      112.17253      12398.31      -2645.9504      299.88291      18.551958      8914948.5      0.019409848    47.255897    
     29500   9762.3685      12334.801      1213.793       3278.8008     -22080.564      957.6967       13274.294      556.57418      118.38114      12443.393     -2681.0241      300.97335      19.758349      8927246.6      0.019383109    48.097693    
     30000   9869.1147      11814.493      1202.4826      3205.9707     -22088.059      1077.1419      13304.561      552.77095      113.4604       12500.786     -2631.671       302.36154      14.92163       8939472.5      0.019356601    48.92173     
     30071   9878.1975      11449.971      1129.4172      3285.4216     -22087.116      1015.118       13303.435      534.93623      118.13725      12578.849     -2700.6513      304.24968      12.053446      8941345.8      0.019352545    49.043773    
Loop time of 49.0438 on 16 procs for 30000 steps with 13871 atoms

Performance: 5.285 ns/day, 4.541 hours/ns, 611.698 timesteps/s, 8.485 Matom-step/s
93.0% CPU use with 16 MPI tasks x 1 OpenMP threads

MPI task timing breakdown:
Section |  min time  |  avg time  |  max time  |%varavg| %total
---------------------------------------------------------------
Pair    | 3.8284     | 5.1296     | 6.9332     |  36.6 | 10.46
Bond    | 10.328     | 13.007     | 15.175     |  38.8 | 26.52
Kspace  | 12.368     | 16.302     | 20.174     |  54.2 | 33.24
Neigh   | 0.18818    | 0.18879    | 0.18976    |   0.1 |  0.38
Comm    | 1.7896     | 2.0741     | 2.2        |   8.8 |  4.23
Output  | 0.048528   | 0.06675    | 0.08451    |   4.1 |  0.14
Modify  | 6.9181     | 8.3683     | 12.097     |  46.6 | 17.06
Other   |            | 3.908      |            |       |  7.97

Nlocal:        866.938 ave        1054 max         649 min
Histogram: 1 1 2 0 1 3 4 1 2 1
Nghost:        1191.94 ave        1431 max         964 min
Histogram: 1 0 4 1 1 3 4 1 0 1
Neighs:        12490.7 ave       17196 max        8014 min
Histogram: 3 0 0 3 2 2 2 2 0 2

Total # of neighbors = 199851
Ave neighs/atom = 14.407829
Ave special neighs/atom = 7.7817028
Neighbor list builds = 260
Dangerous builds = 0
write_data system.data
System init for write_data ...
PPPM initialization ...
  using 12-bit tables for long-range coulomb (src/kspace.cpp:342)
  G vector (1/distance) = 0.10104139
  grid = 20 18 18
  stencil order = 5
  estimated absolute RMS force accuracy = 0.30829088
  estimated relative force accuracy = 0.00092840882
  using double precision FFTW3
  3d grid and FFT values/proc = 2100 720
Generated 412686 of 412686 mixed pair_coeff terms from geometric mixing rule
Total wall time: 0:00:49
